# 0 [Electrical conductivity in SI units, i.e. in 1/Ohm/m]
# Mu(eV) T(K) N(#carriers) sigma_xx sigma_xy sigma_xz sigma_yy sigma_yz sigma_zz
# T(K) = 300.00   Npoints =    1001   V(cm^3) =  1.139E-20
   -5.00   300.000    3.624E+02    3.4794112E+06    1.6687827E+03    4.6255937E-03    3.4740561E+06    5.0130916E-03    3.5076454E+06
   -4.99   300.000    3.614E+02    3.4496237E+06    3.5844321E+02    1.1626684E-03    3.4414426E+06    6.0213082E-03    3.4734028E+06
   -4.98   300.000    3.604E+02    3.3957495E+06   -8.3421238E+02   -1.8427417E-03    3.3841914E+06    7.0222800E-03    3.4169331E+06
   -4.97   300.000    3.595E+02    3.3285618E+06   -1.4956737E+03   -4.3175069E-03    3.3129516E+06    7.8828532E-03    3.3487630E+06
   -4.96   300.000    3.585E+02    3.2607732E+06   -1.3687860E+03   -6.1822451E-03    3.2404041E+06    8.5478718E-03    3.2808012E+06
   -4.95   300.000    3.576E+02    3.2027038E+06   -4.7904378E+02   -7.3053361E-03    3.1771454E+06    9.0015519E-03    3.2227421E+06
   -4.94   300.000    3.567E+02    3.1601537E+06    9.1989464E+02   -7.5165202E-03    3.1296672E+06    9.2107078E-03    3.1803063E+06
   -4.93   300.000    3.559E+02    3.1354062E+06    2.4630197E+03   -6.6699165E-03    3.1011731E+06    9.0959412E-03    3.1561874E+06
   -4.92   300.000    3.550E+02    3.1298996E+06    3.7577320E+03   -4.7323317E-03    3.0938580E+06    8.5554130E-03    3.1524357E+06
   -4.91   300.000    3.542E+02    3.1461156E+06    4.4502238E+03   -1.8574485E-03    3.1104954E+06    7.5111315E-03    3.1720417E+06
   -4.90   300.000    3.534E+02    3.1869397E+06    4.3169023E+03    1.5987409E-03    3.1537720E+06    5.9206403E-03    3.2180833E+06
   -4.89   300.000    3.526E+02    3.2527301E+06    3.3575726E+03    5.1314890E-03    3.2235348E+06    3.7374669E-03    3.2906220E+06
   -4.88   300.000    3.518E+02    3.3382367E+06    1.8147559E+03    8.1819372E-03    3.3139178E+06    8.7045746E-04    3.3834514E+06
   -4.87   300.000    3.510E+02    3.4317127E+06    8.1272165E+01    1.0249392E-02    3.4125874E+06   -2.7911206E-03    3.4832356E+06
   -4.86   300.000    3.502E+02    3.5171378E+06   -1.4579075E+03    1.1011592E-02    3.5030178E+06   -7.2704369E-03    3.5722126E+06
   -4.85   300.000    3.494E+02    3.5788956E+06   -2.5585212E+03    1.0427745E-02    3.5691759E+06   -1.2363503E-02    3.6336740E+06
   -4.84   300.000    3.486E+02    3.6070100E+06   -3.1586736E+03    8.7792917E-03    3.6007639E+06   -1.7551504E-02    3.6577531E+06
   -4.83   300.000    3.478E+02    3.6000848E+06   -3.3339829E+03    6.6081113E-03    3.5962017E+06   -2.2041533E-02    3.6442123E+06
   -4.82   300.000    3.470E+02    3.5639927E+06   -3.2231613E+03    4.5405219E-03    3.5613908E+06   -2.4957172E-02    3.6004672E+06
   -4.81   300.000    3.463E+02    3.5075925E+06   -2.9754991E+03    3.0437236E-03    3.5054636E+06   -2.5613985E-02    3.5367118E+06
   -4.80   300.000    3.455E+02    3.4389144E+06   -2.7311197E+03    2.2362125E-03    3.4368648E+06   -2.3752270E-02    3.4618974E+06
   -4.79   300.000    3.447E+02    3.3638845E+06   -2.6090893E+03    1.8821169E-03    3.3618776E+06   -1.9611268E-02    3.3825375E+06
   -4.78   300.000    3.440E+02    3.2870068E+06   -2.6789207E+03    1.5781981E-03    3.2851686E+06   -1.3818342E-02    3.3035284E+06
   -4.77   300.000    3.432E+02    3.2123134E+06   -2.9269228E+03    9.8785824E-04    3.2107637E+06   -7.1756906E-03    3.2290823E+06
   -4.76   300.000    3.425E+02    3.1433965E+06   -3.2565683E+03   -4.0264860E-05    3.1421967E+06   -4.6985082E-04    3.1625601E+06
   -4.75   300.000    3.418E+02    3.0824470E+06   -3.5463049E+03   -1.5013377E-03    3.0816096E+06    5.6263305E-03    3.1053712E+06
   -4.74   300.000    3.411E+02    3.0291465E+06   -3.7367836E+03   -3.3265647E-03    3.0285914E+06    1.0578071E-02    3.0560232E+06
   -4.73   300.000    3.403E+02    2.9803283E+06   -3.8819144E+03   -5.4504126E-03    2.9797765E+06    1.3993333E-02    3.0101557E+06
   -4.72   300.000    3.396E+02    2.9308015E+06   -4.1183923E+03   -7.8218557E-03    2.9297424E+06    1.5639350E-02    2.9617022E+06
   -4.71   300.000    3.389E+02    2.8753121E+06   -4.5673785E+03   -1.0379732E-02    2.8731721E+06    1.5479381E-02    2.9050532E+06
   -4.70   300.000    3.381E+02    2.8110432E+06   -5.2345875E+03   -1.3038456E-02    2.8074885E+06    1.3722258E-02    2.8376407E+06
   -4.69   300.000    3.374E+02    2.7391893E+06   -5.9846099E+03   -1.5710661E-02    2.7343282E+06    1.0839773E-02    2.7614263E+06
   -4.68   300.000    3.366E+02    2.6641677E+06   -6.6062336E+03   -1.8334219E-02    2.6584825E+06    7.4912095E-03    2.6818014E+06
   -4.67   300.000    3.359E+02    2.5906360E+06   -6.9130703E+03   -2.0843010E-02    2.5847063E+06    4.3551585E-03    2.6041883E+06
   -4.66   300.000    3.351E+02    2.5203994E+06   -6.8214260E+03   -2.3077083E-02    2.5146222E+06    1.9469907E-03    2.5306971E+06
   -4.65   300.000    3.344E+02    2.4516584E+06   -6.3806061E+03   -2.4719663E-02    2.4461389E+06    5.0984256E-04    2.4594699E+06
   -4.64   300.000    3.337E+02    2.3812014E+06   -5.7443446E+03   -2.5362079E-02    2.3758556E+06    1.6968957E-05    2.3871996E+06
   -4.63   300.000    3.330E+02    2.3074559E+06   -5.0888387E+03   -2.4689238E-02    2.3022147E+06    2.6221755E-04    2.3124029E+06
   -4.62   300.000    3.323E+02    2.2314981E+06   -4.5105146E+03   -2.2655344E-02    2.2264473E+06    9.7083163E-04    2.2363328E+06
   -4.61   300.000    3.316E+02    2.1553805E+06   -3.9572562E+03   -1.9526427E-02    2.1507525E+06    1.8662346E-03    2.1610111E+06
   -4.60   300.000    3.309E+02    2.0798949E+06   -3.2491889E+03   -1.5785949E-02    2.0759670E+06    2.6821047E-03    2.0868193E+06
   -4.59   300.000    3.303E+02    2.0039044E+06   -2.2044842E+03   -1.1984469E-02    2.0008939E+06    3.1587583E-03    2.0119734E+06
   -4.58   300.000    3.296E+02    1.9251713E+06   -8.0080537E+02   -8.6068770E-03    1.9231650E+06    3.0705136E-03    1.9337061E+06
   -4.57   300.000    3.290E+02    1.8413067E+06    7.6041445E+02   -5.9934997E-03    1.8402279E+06    2.2927185E-03    1.8494936E+06
   -4.56   300.000    3.284E+02    1.7502120E+06    2.1619969E+03   -4.3218719E-03    1.7498409E+06    8.5615924E-04    1.7574972E+06
   -4.55   300.000    3.279E+02    1.6505157E+06    3.1607986E+03   -3.6309885E-03    1.6505655E+06   -1.0702057E-03    1.6567703E+06
   -4.54   300.000    3.274E+02    1.5423489E+06    3.6920731E+03   -3.8563015E-03    1.5425510E+06   -3.2480294E-03    1.5477821E+06
   -4.53   300.000    3.269E+02    1.4278263E+06    3.8365084E+03   -4.8468845E-03    1.4279729E+06   -5.4125500E-03    1.4327871E+06
   -4.52   300.000    3.264E+02    1.3104864E+06    3.7303700E+03   -6.3582948E-03    1.3104254E+06   -7.2676732E-03    1.3152900E+06
   -4.51   300.000    3.259E+02    1.1940425E+06    3.4989853E+03   -8.0524490E-03    1.1936662E+06   -8.4957316E-03    1.1988759E+06
   -4.50   300.000    3.255E+02    1.0815975E+06    3.2295707E+03   -9.5516368E-03    1.0808572E+06   -8.8321962E-03    1.0865088E+06
   -4.49   300.000    3.251E+02    9.7576680E+05    2.9667914E+03   -1.0550706E-02    9.7469969E+05   -8.1677050E-03    9.8073096E+05
   -4.48   300.000    3.248E+02    8.7885952E+05    2.7176900E+03   -1.0922168E-02    8.7759034E+05   -6.5969435E-03    8.8387936E+05
   -4.47   300.000    3.244E+02    7.9226255E+05    2.4639208E+03   -1.0733947E-02    7.9096118E+05   -4.3817612E-03    7.9742070E+05
   -4.46   300.000    3.241E+02    7.1549996E+05    2.1819187E+03   -1.0168374E-02    7.1431933E+05   -1.8669155E-03    7.2091624E+05
   -4.45   300.000    3.238E+02    6.4621554E+05    1.8635071E+03   -9.4120182E-03    6.4524618E+05    5.9810759E-04    6.5195244E+05
   -4.44   300.000    3.235E+02    5.8148025E+05    1.5228502E+03   -8.5911244E-03    5.8073971E+05    2.7178119E-03    5.8747436E+05
   -4.43   300.000    3.232E+02    5.1947590E+05    1.1847009E+03   -7.7672110E-03    5.1892425E+05    4.3027625E-03    5.2552815E+05
   -4.42   300.000    3.229E+02    4.6026900E+05    8.6671149E+02   -6.9601592E-03    4.5983140E+05    5.3048072E-03    4.6607767E+05
   -4.41   300.000    3.227E+02    4.0524322E+05    5.7285267E+02   -6.1690757E-03    4.0482949E+05    5.8029217E-03    4.1045685E+05
   -4.40   300.000    3.224E+02    3.5588628E+05    3.0094806E+02   -5.3881335E-03    3.5540933E+05    5.9364462E-03    3.6016473E+05
   -4.39   300.000    3.222E+02    3.1302298E+05    5.3237627E+01   -4.6264938E-03    3.1241852E+05    5.8301197E-03    3.1609735E+05
   -4.38   300.000    3.219E+02    2.7693956E+05   -1.6085750E+02   -3.9266444E-03    2.7618300E+05    5.5584661E-03    2.7866545E+05
   -4.37   300.000    3.217E+02    2.4790701E+05   -3.3022727E+02   -3.3608677E-03    2.4702275E+05    5.1570175E-03    2.4830846E+05
   -4.36   300.000    3.215E+02    2.2641708E+05   -4.4857835E+02   -3.0007747E-03    2.2547950E+05    4.6529034E-03    2.2570845E+05
   -4.35   300.000    3.213E+02    2.1300377E+05   -5.1606448E+02   -2.8820128E-03    2.1212895E+05    4.0843763E-03    2.1156814E+05
   -4.34   300.000    3.211E+02    2.0797179E+05   -5.3644585E+02   -2.9880492E-03    2.0729538E+05    3.4990799E-03    2.0628769E+05
   -4.33   300.000    3.208E+02    2.1126609E+05   -5.1371675E+02   -3.2577837E-03    2.1090672E+05    2.9415423E-03    2.0980136E+05
   -4.32   300.000    3.206E+02    2.2245216E+05   -4.5057192E+02   -3.6075565E-03    2.2247073E+05    2.4441218E-03    2.2156153E+05
   -4.31   300.000    3.204E+02    2.4069802E+05   -3.4840948E+02   -3.9550120E-03    2.4106770E+05    2.0250469E-03    2.4055762E+05
   -4.30   300.000    3.201E+02    2.6473531E+05   -2.0802050E+02   -4.2381819E-03    2.6533231E+05    1.6886436E-03    2.6532457E+05
   -4.29   300.000    3.199E+02    2.9288018E+05   -3.0540040E+01   -4.4321497E-03    2.9350190E+05    1.4243101E-03    2.9400280E+05
   -4.28   300.000    3.196E+02    3.2321668E+05    1.8160232E+02   -4.5610903E-03    3.2363633E+05    1.2072483E-03    3.2455163E+05
   -4.27   300.000    3.192E+02    3.5393455E+05    4.2331732E+02   -4.6891047E-03    3.5399083E+05    1.0069743E-03    3.5511060E+05
   -4.26   300.000    3.189E+02    3.8363128E+05    6.8388238E+02   -4.8808897E-03    3.8331997E+05    8.0379481E-04    3.8431128E+05
   -4.25   300.000    3.185E+02    4.1133233E+05    9.4223125E+02   -5.1532600E-03    4.1084271E+05    6.0326794E-04    4.1128972E+05
   -4.24   300.000    3.180E+02    4.3620991E+05    1.1639076E+03   -5.4492055E-03    4.3586923E+05    4.3638028E-04    4.3538659E+05
   -4.23   300.000    3.175E+02    4.5731405E+05    1.3068737E+03   -5.6474287E-03    4.5745863E+05    3.4242388E-04    4.5584469E+05
   -4.22   300.000    3.169E+02    4.7362933E+05    1.3412148E+03   -5.6033751E-03    4.7447019E+05    3.4366960E-04    4.7180761E+05
   -4.21   300.000    3.162E+02    4.8437441E+05    1.2743101E+03   -5.2086028E-03    4.8593417E+05    4.2759455E-04    4.8255551E+05
   -4.20   300.000    3.154E+02    4.8919108E+05    1.1582393E+03   -4.4403719E-03    4.9134125E+05    5.5067188E-04    4.8767361E+05
   -4.19   300.000    3.144E+02    4.8809916E+05    1.0640325E+03   -3.3711909E-03    4.9065404E+05    6.6646715E-04    4.8705627E+05
   -4.18   300.000    3.133E+02    4.8145211E+05    1.0395185E+03   -2.1364946E-03    4.8424612E+05    7.6158432E-04    4.8094081E+05
   -4.17   300.000    3.120E+02    4.7007519E+05    1.0862198E+03   -8.8649453E-04    4.7298529E+05    8.6935227E-04    4.7008329E+05
   -4.16   300.000    3.105E+02    4.5540588E+05    1.1702502E+03    2.5573635E-04    4.5833095E+05    1.0459212E-03    4.5587901E+05
   -4.15   300.000    3.087E+02    4.3931760E+05    1.2498808E+03    1.2243286E-03    4.4214757E+05    1.3298463E-03    4.4015575E+05
   -4.14   300.000    3.067E+02    4.2359341E+05    1.2954860E+03    2.0234587E-03    4.2619423E+05    1.7193257E-03    4.2465169E+05
   -4.13   300.000    3.045E+02    4.0937236E+05    1.2942256E+03    2.7132162E-03    4.1159878E+05    2.1772165E-03    4.1049593E+05
   -4.12   300.000    3.020E+02    3.9691679E+05    1.2467270E+03    3.3716773E-03    3.9864914E+05    2.6506983E-03    3.9799781E+05
   -4.11   300.000    2.992E+02    3.8577367E+05    1.1631763E+03    4.0534100E-03    3.8695743E+05    3.0907157E-03    3.8678682E+05
   -4.10   300.000    2.963E+02    3.7513668E+05    1.0593498E+03    4.7632072E-03    3.7579855E+05    3.4622974E-03    3.7612362E+05
   -4.09   300.000    2.931E+02    3.6416338E+05    9.5100925E+02    5.4511455E-03    3.6439451E+05    3.7433621E-03    3.6518026E+05
   -4.08   300.000    2.898E+02    3.5214634E+05    8.4814284E+02    6.0283993E-03    3.5206544E+05    3.9175749E-03    3.5321447E+05
   -4.07   300.000    2.862E+02    3.3861058E+05    7.5254897E+02    6.3999848E-03    3.3832833E+05    3.9695228E-03    3.3969994E+05
   -4.06   300.000    2.825E+02    3.2345923E+05    6.6113595E+02    6.5021241E-03    3.2305913E+05    3.8856509E-03    3.2450731E+05
   -4.05   300.000    2.786E+02    3.0718755E+05    5.7347896E+02    6.3256687E-03    3.0672607E+05    3.6595123E-03    3.0813424E+05
   -4.04   300.000    2.746E+02    2.9101716E+05    4.9735232E+02    5.9140295E-03    2.9053406E+05    3.2977020E-03    2.9182775E+05
   -4.03   300.000    2.704E+02    2.7674012E+05    4.4662819E+02    5.3398646E-03    2.7626547E+05    2.8220189E-03    2.7739565E+05
   -4.02   300.000    2.662E+02    2.6623594E+05    4.3385746E+02    4.6759092E-03    2.6578502E+05    2.2668470E-03    2.6669170E+05
   -4.01   300.000    2.620E+02    2.6088731E+05    4.6450882E+02    3.9749499E-03    2.6044498E+05    1.6762371E-03    2.6102377E+05
   -4.00   300.000    2.578E+02    2.6119298E+05    5.3571280E+02    3.2659452E-03    2.6069868E+05    1.1042176E-03    2.6079081E+05
   -3.99   300.000    2.536E+02    2.6672207E+05    6.3760677E+02    2.5641425E-03    2.6607113E+05    6.1454485E-04    2.6548088E+05
   -3.98   300.000    2.496E+02    2.7636164E+05    7.5500824E+02    1.8864451E-03    2.7543313E+05    2.7231495E-04    2.7396430E+05
   -3.97   300.000    2.456E+02    2.8871120E+05    8.6821888E+02    1.2626344E-03    2.8741266E+05    1.2659863E-04    2.8491819E+05
   -3.96   300.000    2.417E+02    3.0246400E+05    9.5328240E+02    7.3728119E-04    3.0076557E+05    1.9397583E-04    2.9720195E+05
   -3.95   300.000    2.378E+02    3.1664467E+05    9.8427230E+02    3.6050302E-04    3.1457871E+05    4.5299160E-04    3.1004307E+05
   -3.94   300.000    2.338E+02    3.3064119E+05    9.4000599E+02    1.6919990E-04    3.2826873E+05    8.4899441E-04    3.2299419E+05
   -3.93   300.000    2.298E+02    3.4408500E+05    8.1251621E+02    1.6631075E-04    3.4145158E+05    1.3029550E-03    3.3575912E+05
   -3.92   300.000    2.256E+02    3.5672984E+05    6.0973878E+02    3.0843615E-04    3.5383436E+05    1.7222744E-03    3.4806226E+05
   -3.91   300.000    2.213E+02    3.6844247E+05    3.4892230E+02    5.1016183E-04    3.6522957E+05    2.0169785E-03    3.5966487E+05
   -3.90   300.000    2.169E+02    3.7926243E+05    4.7025771E+01    6.6924160E-04    3.7563801E+05    2.1226983E-03    3.7046732E+05
   -3.89   300.000    2.124E+02    3.8939979E+05   -2.8472711E+02    7.0854901E-04    3.8526465E+05    2.0231991E-03    3.8055417E+05
   -3.88   300.000    2.077E+02    3.9912288E+05   -6.4378331E+02    6.1819697E-04    3.9441476E+05    1.7592731E-03    3.9011960E+05
   -3.87   300.000    2.030E+02    4.0862954E+05   -1.0402545E+03    4.7185266E-04    4.0335778E+05    1.4149139E-03    3.9935236E+05
   -3.86   300.000    1.983E+02    4.1804300E+05   -1.4965594E+03    3.9715570E-04    4.1230121E+05    1.0839045E-03    4.0842104E+05
   -3.85   300.000    1.936E+02    4.2760719E+05   -2.0353615E+03    5.0746191E-04    4.2156077E+05    8.3427952E-04    4.1764569E+05
   -3.84   300.000    1.890E+02    4.3802650E+05   -2.6612827E+03    8.3437225E-04    4.3188444E+05    6.9241487E-04    4.2781233E+05
   -3.83   300.000    1.845E+02    4.5075344E+05   -3.3508345E+03    1.3061489E-03    4.4473697E+05    6.5141116E-04    4.4044142E+05
   -3.82   300.000    1.800E+02    4.6794922E+05   -4.0570122E+03    1.7863762E-03    4.6226482E+05    6.8503743E-04    4.5773899E+05
   -3.81   300.000    1.757E+02    4.9192740E+05   -4.7224975E+03    2.1456260E-03    4.8674309E+05    7.4934156E-04    4.8203692E+05
   -3.80   300.000    1.715E+02    5.2418650E+05   -5.2917957E+03    2.3197317E-03    5.1960776E+05    7.7784506E-04    5.1482502E+05
   -3.79   300.000    1.675E+02    5.6451504E+05   -5.7164616E+03    2.3225672E-03    5.6055992E+05    6.8922273E-04    5.5585959E+05
   -3.78   300.000    1.636E+02    6.1079789E+05   -5.9541498E+03    2.2141590E-03    6.0738091E+05    4.1236980E-04    6.0297831E+05
   -3.77   300.000    1.600E+02    6.5984846E+05   -5.9689470E+03    2.0534429E-03    6.5679148E+05   -8.5996792E-05    6.5294072E+05
   -3.76   300.000    1.566E+02    7.0895015E+05   -5.7415788E+03    1.8712973E-03    7.0603026E+05   -7.8630263E-04    7.0296939E+05
   -3.75   300.000    1.534E+02    7.5722493E+05   -5.2866011E+03    1.6789076E-03    7.5424489E+05   -1.6143276E-03    7.5211409E+05
   -3.74   300.000    1.504E+02    8.0592512E+05   -4.6569996E+03    1.4966611E-03    8.0277316E+05   -2.4495215E-03    8.0154776E+05
   -3.73   300.000    1.478E+02    8.5736125E+05   -3.9213893E+03    1.3770948E-03    8.5403086E+05   -3.1506982E-03    8.5350811E+05
   -3.72   300.000    1.454E+02    9.1297589E+05   -3.1290545E+03    1.4068461E-03    9.0953971E+05   -3.6035588E-03    9.0938706E+05
   -3.71   300.000    1.432E+02    9.7151315E+05   -2.2941724E+03    1.6874972E-03    9.6807251E+05   -3.7683482E-03    9.6792139E+05
   -3.70   300.000    1.413E+02    1.0282463E+06   -1.4112783E+03    2.3009122E-03    1.0248864E+06   -3.6894493E-03    1.0244470E+06
   -3.69   300.000    1.397E+02    1.0759935E+06   -4.8503866E+02    3.2665876E-03    1.0727567E+06   -3.4523237E-03    1.0719201E+06
   -3.68   300.000    1.382E+02    1.1079867E+06    4.5205467E+02    4.5059015E-03    1.1048534E+06   -3.1192654E-03    1.1037377E+06
   -3.67   300.000    1.368E+02    1.1213923E+06    1.3459532E+03    5.8394980E-03    1.1182576E+06   -2.6944191E-03    1.1171664E+06
   -3.66   300.000    1.356E+02    1.1193988E+06    2.1417820E+03    7.0381347E-03    1.1160618E+06   -2.1392870E-03    1.1153596E+06
   -3.65   300.000    1.346E+02    1.1105925E+06    2.7992671E+03    7.9084761E-03    1.1067947E+06   -1.4164720E-03    1.1067526E+06
   -3.64   300.000    1.336E+02    1.1062491E+06    3.2886084E+03    8.3594825E-03    1.1017808E+06   -5.2206326E-04    1.1024585E+06
   -3.63   300.000    1.327E+02    1.1171196E+06    3.5722794E+03    8.4123391E-03    1.1119654E+06    5.1795859E-04    1.1131761E+06
   -3.62   300.000    1.319E+02    1.1506611E+06    3.5953214E+03    8.1663150E-03    1.1451016E+06    1.6768718E-03    1.1464645E+06
   -3.61   300.000    1.311E+02    1.2087888E+06    3.2989156E+03    7.7531249E-03    1.2033723E+06    2.9422068E-03    1.2044180E+06
   -3.60   300.000    1.303E+02    1.2862463E+06    2.6534542E+03    7.2969308E-03    1.2816085E+06    4.2890523E-03    1.2818961E+06
   -3.59   300.000    1.296E+02    1.3704244E+06    1.7040866E+03    6.8825422E-03    1.3670498E+06    5.6308665E-03    1.3662634E+06
   -3.58   300.000    1.289E+02    1.4439809E+06    6.1610323E+02    6.5313609E-03    1.4420627E+06    6.7926859E-03    1.4400713E+06
   -3.57   300.000    1.281E+02    1.4907689E+06   -3.2369807E+02    6.1858745E-03    1.4902501E+06    7.5345742E-03    1.4871196E+06
   -3.56   300.000    1.274E+02    1.5029956E+06   -7.9803850E+02    5.7135369E-03    1.5037266E+06    7.6229338E-03    1.4996765E+06
   -3.55   300.000    1.268E+02    1.4853542E+06   -6.0741902E+02    4.9464803E-03    1.4872358E+06    6.9202298E-03    1.4825486E+06
   -3.54   300.000    1.261E+02    1.4532233E+06    2.4149902E+02    3.7461442E-03    1.4562518E+06    5.4452668E-03    1.4511653E+06
   -3.53   300.000    1.254E+02    1.4262151E+06    1.5630433E+03    2.0501932E-03    1.4304288E+06    3.3691976E-03    1.4250469E+06
   -3.52   300.000    1.248E+02    1.4210203E+06    3.0568856E+03   -1.2078782E-04    1.4263871E+06    9.5643814E-04    1.4206412E+06
   -3.51   300.000    1.241E+02    1.4466703E+06    4.3206899E+03   -2.6721756E-03    1.4529629E+06   -1.5042220E-03    1.4466236E+06
   -3.50   300.000    1.234E+02    1.5031070E+06    4.8404768E+03   -5.4296026E-03    1.5098052E+06   -3.7375560E-03    1.5025110E+06
   -3.49   300.000    1.228E+02    1.5824525E+06    4.0714654E+03   -8.1290419E-03    1.5887257E+06   -5.4917687E-03    1.5800107E+06
   -3.48   300.000    1.221E+02    1.6719993E+06    1.6781588E+03   -1.0444427E-02    1.6768350E+06   -6.5632025E-03    1.6662082E+06
   -3.47   300.000    1.214E+02    1.7580948E+06   -2.1599366E+03   -1.2074396E-02    1.7605867E+06   -6.8590930E-03    1.7477344E+06
   -3.46   300.000    1.206E+02    1.8298585E+06   -6.6494291E+03   -1.2853194E-02    1.8295327E+06   -6.4536035E-03    1.8145944E+06
   -3.45   300.000    1.199E+02    1.8812237E+06   -1.0701051E+04   -1.2814978E-02    1.8781830E+06   -5.5695817E-03    1.8618951E+06
   -3.44   300.000    1.191E+02    1.9106069E+06   -1.3483626E+04   -1.2167616E-02    1.9053829E+06   -4.4866401E-03    1.8889232E+06
   -3.43   300.000    1.184E+02    1.9193087E+06   -1.4759386E+04   -1.1199629E-02    1.9125586E+06   -3.4500066E-03    1.8971518E+06
   -3.42   300.000    1.176E+02    1.9102511E+06   -1.4780988E+04   -1.0182533E-02    1.9025298E+06   -2.6406939E-03    1.8890517E+06
   -3.41   300.000    1.168E+02    1.8875198E+06   -1.3954678E+04   -9.3099491E-03    1.8792266E+06   -2.1946838E-03    1.8680273E+06
   -3.40   300.000    1.159E+02    1.8562669E+06   -1.2588728E+04   -8.6790962E-03    1.8476972E+06   -2.2184465E-03    1.8387001E+06
   -3.39   300.000    1.151E+02    1.8224594E+06   -1.0842973E+04   -8.3079438E-03    1.8138520E+06   -2.7703260E-03    1.8067955E+06
   -3.38   300.000    1.142E+02    1.7921401E+06   -8.7961401E+03   -8.1739959E-03    1.7836716E+06   -3.8178559E-03    1.7782991E+06
   -3.37   300.000    1.134E+02    1.7701172E+06   -6.5345159E+03   -8.2441810E-03    1.7618554E+06   -5.2013130E-03    1.7579709E+06
   -3.36   300.000    1.125E+02    1.7583753E+06   -4.2297041E+03   -8.4672441E-03    1.7502329E+06   -6.6374482E-03    1.7476726E+06
   -3.35   300.000    1.115E+02    1.7548802E+06   -2.1831227E+03   -8.7387315E-03    1.7466143E+06   -7.7877539E-03    1.7452123E+06
   -3.34   300.000    1.106E+02    1.7537082E+06   -8.1638494E+02   -8.8891243E-03    1.7449888E+06   -8.3810607E-03    1.7445810E+06
   -3.33   300.000    1.096E+02    1.7471565E+06   -6.2341680E+02   -8.7316234E-03    1.7376806E+06   -8.3332356E-03    1.7381512E+06
   -3.32   300.000    1.087E+02    1.7291064E+06   -2.0755335E+03   -8.1406847E-03    1.7186948E+06   -7.7874868E-03    1.7200341E+06
   -3.31   300.000    1.077E+02    1.6974274E+06   -5.3913131E+03   -7.0968100E-03    1.6860653E+06   -7.0386436E-03    1.6883837E+06
   -3.30   300.000    1.066E+02    1.6537982E+06   -1.0189632E+04   -5.6768680E-03    1.6416359E+06   -6.3879577E-03    1.6450950E+06
   -3.29   300.000    1.056E+02    1.6017324E+06   -1.5356165E+04   -4.0247179E-03    1.5890974E+06   -6.0237544E-03    1.5937567E+06
   -3.28   300.000    1.045E+02    1.5449403E+06   -1.9459992E+04   -2.3285401E-03    1.5323724E+06   -5.9836395E-03    1.5379892E+06
   -3.27   300.000    1.035E+02    1.4870879E+06   -2.1498425E+04   -7.9663885E-04    1.4753186E+06   -6.1841332E-03    1.4812122E+06
   -3.26   300.000    1.024E+02    1.4323469E+06   -2.1335285E+04    3.7904024E-04    1.4221102E+06   -6.4820909E-03    1.4272732E+06
   -3.25   300.000    1.014E+02    1.3856676E+06   -1.9548510E+04    1.0701436E-03    1.3773816E+06   -6.7422418E-03    1.3808916E+06
   -3.24   300.000    1.003E+02    1.3522192E+06   -1.6975149E+04    1.2626328E-03    1.3457748E+06   -6.8814806E-03    1.3472530E+06
   -3.23   300.000    9.927E+01    1.3361090E+06   -1.4337413E+04    1.0905882E-03    1.3309616E+06   -6.8640693E-03    1.3307298E+06
   -3.22   300.000    9.824E+01    1.3390429E+06   -1.2080771E+04    8.1964224E-04    1.3345234E+06   -6.6608619E-03    1.3334140E+06
   -3.21   300.000    9.721E+01    1.3596608E+06   -1.0363072E+04    7.6342488E-04    1.3552575E+06   -6.2204738E-03    1.3543166E+06
   -3.20   300.000    9.620E+01    1.3936636E+06   -9.1100458E+03    1.1645223E-03    1.3891367E+06   -5.4830509E-03    1.3894160E+06
   -3.19   300.000    9.519E+01    1.4344198E+06   -8.1025786E+03    2.1081492E-03    1.4297824E+06   -4.4211240E-03    1.4322045E+06
   -3.18   300.000    9.419E+01    1.4740671E+06   -7.0917336E+03    3.5157267E-03    1.4695128E+06   -3.0748126E-03    1.4747136E+06
   -3.17   300.000    9.320E+01    1.5052703E+06   -5.9217751E+03    5.2025696E-03    1.5010780E+06   -1.5653323E-03    1.5092010E+06
   -3.16   300.000    9.220E+01    1.5229754E+06   -4.6086556E+03    6.9457775E-03    1.5193925E+06   -8.1371756E-05    1.5299263E+06
   -3.15   300.000    9.121E+01    1.5249551E+06   -3.3203190E+03    8.5251451E-03    1.5220776E+06    1.1659195E-03    1.5338835E+06
   -3.14   300.000    9.022E+01    1.5110058E+06   -2.2609029E+03    9.7383854E-03    1.5087040E+06    2.0066394E-03    1.5203044E+06
   -3.13   300.000    8.922E+01    1.4820150E+06   -1.5365002E+03    1.0413090E-02    1.4799514E+06    2.3647644E-03    1.4899796E+06
   -3.12   300.000    8.822E+01    1.4397237E+06   -1.1005459E+03    1.0433420E-02    1.4374819E+06    2.2786094E-03    1.4450703E+06
   -3.11   300.000    8.723E+01    1.3867970E+06   -8.1371497E+02    9.7799528E-03    1.3840805E+06    1.8855267E-03    1.3890062E+06
   -3.10   300.000    8.622E+01    1.3267027E+06   -5.5889663E+02    8.5602386E-03    1.3234910E+06    1.3754718E-03    1.3260693E+06
   -3.09   300.000    8.521E+01    1.2634975E+06   -3.1318957E+02    6.9996305E-03    1.2600402E+06    9.2774406E-04    1.2608941E+06
   -3.08   300.000    8.418E+01    1.2016805E+06   -1.3478889E+02    5.3800861E-03    1.1983162E+06    6.5824676E-04    1.1981505E+06
   -3.07   300.000    8.314E+01    1.1459016E+06   -1.0745474E+02    3.9537394E-03    1.1428385E+06    6.0121342E-04    1.1422692E+06
   -3.06   300.000    8.206E+01    1.1002975E+06   -3.0234867E+02    2.8803860E-03    1.0975281E+06    7.2536413E-04    1.0969769E+06
   -3.05   300.000    8.096E+01    1.0676820E+06   -7.7098787E+02    2.2154095E-03    1.0650628E+06    9.6453062E-04    1.0647412E+06
   -3.04   300.000    7.981E+01    1.0490475E+06   -1.5503187E+03    1.9332765E-03    1.0464027E+06    1.2445026E-03    1.0464105E+06
   -3.03   300.000    7.862E+01    1.0434593E+06   -2.6613045E+03    1.9569577E-03    1.0405855E+06    1.5031765E-03    1.0410748E+06
   -3.02   300.000    7.737E+01    1.0481325E+06   -4.0852641E+03    2.1820110E-03    1.0447349E+06    1.7128900E-03    1.0460207E+06
   -3.01   300.000    7.606E+01    1.0587398E+06   -5.7124311E+03    2.5019901E-03    1.0544012E+06    1.9063024E-03    1.0569418E+06
   -3.00   300.000    7.468E+01    1.0702584E+06   -7.2999258E+03    2.8325972E-03    1.0644814E+06    2.1823049E-03    1.0687490E+06
   -2.99   300.000    7.321E+01    1.0783398E+06   -8.5152762E+03    3.1154405E-03    1.0706357E+06    2.6612610E-03    1.0769530E+06
   -2.98   300.000    7.166E+01    1.0806053E+06   -9.0874546E+03    3.2978276E-03    1.0705906E+06    3.3998196E-03    1.0790041E+06
   -2.97   300.000    7.002E+01    1.0771179E+06   -8.9544170E+03    3.3187219E-03    1.0645849E+06    4.3295480E-03    1.0748390E+06
   -2.96   300.000    6.829E+01    1.0697965E+06   -8.2673242E+03    3.1250553E-03    1.0547373E+06    5.2755492E-03    1.0663756E+06
   -2.95   300.000    6.645E+01    1.0612499E+06   -7.2606211E+03    2.6981640E-03    1.0438454E+06    6.0369808E-03    1.0563859E+06
   -2.94   300.000    6.449E+01    1.0537751E+06   -6.1238851E+03    2.0563084E-03    1.0343919E+06    6.4602570E-03    1.0474606E+06
   -2.93   300.000    6.242E+01    1.0489459E+06   -4.9655367E+03    1.2338877E-03    1.0281649E+06    6.4643918E-03    1.0414893E+06
   -2.92   300.000    6.021E+01    1.0477498E+06   -3.8458299E+03    2.6304124E-04    1.0263936E+06    6.0359360E-03    1.0396663E+06
   -2.91   300.000    5.786E+01    1.0510316E+06   -2.8177368E+03   -8.2884569E-04    1.0301173E+06    5.2260488E-03    1.0428556E+06
   -2.90   300.000    5.537E+01    1.0599889E+06   -1.9474855E+03   -2.0114483E-03    1.0405564E+06    4.1529039E-03    1.0521042E+06
   -2.89   300.000    5.275E+01    1.0763740E+06   -1.3171732E+03   -3.2442900E-03    1.0592339E+06    2.9872055E-03    1.0689321E+06
   -2.88   300.000    5.001E+01    1.1020641E+06   -1.0098814E+03   -4.4774450E-03    1.0875982E+06    1.9078635E-03    1.0949996E+06
   -2.87   300.000    4.719E+01    1.1380728E+06   -1.0724085E+03   -5.6627920E-03    1.1262022E+06    1.0463816E-03    1.1311746E+06
   -2.86   300.000    4.432E+01    1.1836215E+06   -1.4701759E+03   -6.7730689E-03    1.1739332E+06    4.5525929E-04    1.1765933E+06
   -2.85   300.000    4.145E+01    1.2359284E+06   -2.0737493E+03   -7.8193758E-03    1.2278430E+06    1.1645221E-04    1.2283842E+06
   -2.84   300.000    3.863E+01    1.2908405E+06   -2.7049251E+03   -8.8502014E-03    1.2837268E+06   -2.7863515E-05    1.2822463E+06
   -2.83   300.000    3.590E+01    1.3439130E+06   -3.2198156E+03   -9.9193040E-03    1.3371561E+06   -5.2695900E-05    1.3335633E+06
   -2.82   300.000    3.330E+01    1.3914249E+06   -3.5656287E+03   -1.1037601E-02    1.3845010E+06   -5.1399715E-05    1.3785433E+06
   -2.81   300.000    3.087E+01    1.4310064E+06   -3.7653009E+03   -1.2146299E-02    1.4235711E+06   -1.4995411E-04    1.4149649E+06
   -2.80   300.000    2.862E+01    1.4617807E+06   -3.8483016E+03   -1.3128188E-02    1.4537217E+06   -5.0561456E-04    1.4423165E+06
   -2.79   300.000    2.657E+01    1.4840574E+06   -3.7906060E+03   -1.3839407E-02    1.4754697E+06   -1.2719827E-03    1.4613588E+06
   -2.78   300.000    2.469E+01    1.4987051E+06   -3.5103399E+03   -1.4143457E-02    1.4897980E+06   -2.5462448E-03    1.4733404E+06
   -2.77   300.000    2.300E+01    1.5065075E+06   -2.9154104E+03   -1.3948360E-02    1.4974990E+06   -4.3292298E-03    1.4792706E+06
   -2.76   300.000    2.146E+01    1.5079439E+06   -1.9631300E+03   -1.3243575E-02    1.4989969E+06   -6.5104653E-03    1.4797009E+06
   -2.75   300.000    2.007E+01    1.5035781E+06   -6.9131845E+02   -1.2111193E-02    1.4948038E+06   -8.8738691E-03    1.4751674E+06
   -2.74   300.000    1.880E+01    1.4946775E+06    7.8780289E+02   -1.0691657E-02    1.4861929E+06   -1.1124125E-02    1.4668897E+06
   -2.73   300.000    1.765E+01    1.4833867E+06    2.3035776E+03   -9.1258009E-03    1.4753906E+06   -1.2937837E-02    1.4570170E+06
   -2.72   300.000    1.659E+01    1.4720738E+06    3.6271149E+03   -7.5171386E-03    1.4648902E+06   -1.4035139E-02    1.4479699E+06
   -2.71   300.000    1.562E+01    1.4621221E+06    4.4823493E+03   -5.9289238E-03    1.4561521E+06   -1.4253066E-02    1.4411058E+06
   -2.70   300.000    1.472E+01    1.4529928E+06    4.6322509E+03   -4.3964176E-03    1.4485692E+06   -1.3587214E-02    1.4356369E+06
   -2.69   300.000    1.389E+01    1.4423297E+06    4.0353726E+03   -2.9406964E-03    1.4395533E+06   -1.2175605E-02    1.4287587E+06
   -2.68   300.000    1.312E+01    1.4270331E+06    2.9328661E+03   -1.5902739E-03    1.4257130E+06   -1.0241152E-02    1.4169658E+06
   -2.67   300.000    1.239E+01    1.4043840E+06    1.7260420E+03   -4.0939578E-04    1.4041301E+06   -8.0408421E-03    1.3974243E+06
   -2.66   300.000    1.171E+01    1.3725077E+06    7.1854676E+02    4.9225712E-04    1.3729057E+06   -5.8464770E-03    1.3684200E+06
   -2.65   300.000    1.107E+01    1.3305387E+06   -3.8654629E+01    9.9437787E-04    1.3312801E+06   -3.9346948E-03    1.3292546E+06
   -2.64   300.000    1.047E+01    1.2792506E+06   -6.8413877E+02    1.0375463E-03    1.2801515E+06   -2.5546868E-03    1.2806565E+06
   -2.63   300.000    9.902E+00    1.2219451E+06   -1.3719826E+03    6.8078103E-04    1.2228776E+06   -1.8780485E-03    1.2256935E+06
   -2.62   300.000    9.365E+00    1.1644232E+06   -2.1457358E+03    8.5361860E-05    1.1652253E+06   -1.9665676E-03    1.1698824E+06
   -2.61   300.000    8.856E+00    1.1133080E+06   -2.9240396E+03   -5.7772339E-04    1.1137321E+06   -2.7796015E-03    1.1196003E+06
   -2.60   300.000    8.373E+00    1.0733657E+06   -3.5663744E+03   -1.2179357E-03    1.0731063E+06   -4.2012606E-03    1.0794704E+06
   -2.59   300.000    7.911E+00    1.0453767E+06   -3.9519404E+03   -1.8272865E-03    1.0441883E+06   -6.0514777E-03    1.0503604E+06
   -2.58   300.000    7.469E+00    1.0259053E+06   -4.0193062E+03   -2.3956341E-03    1.0237518E+06   -8.0758180E-03    1.0292489E+06
   -2.57   300.000    7.046E+00    1.0091742E+06   -3.7591091E+03   -2.8241046E-03    1.0062896E+06   -9.9477895E-03    1.0109791E+06
   -2.56   300.000    6.641E+00    9.8990354E+05   -3.1983023E+03   -2.9196503E-03    9.8668891E+05   -1.1316288E-02    9.9077088E+05
   -2.55   300.000    6.255E+00    9.6542097E+05   -2.4176620E+03   -2.4864773E-03    9.6223839E+05   -1.1894951E-02    9.6607059E+05
   -2.54   300.000    5.886E+00    9.3600909E+05   -1.5891958E+03   -1.4615973E-03    9.3300106E+05   -1.1557419E-02    9.3692224E+05
   -2.53   300.000    5.534E+00    9.0363273E+05   -9.6414492E+02   -8.4926230E-06    9.0064995E+05   -1.0388476E-02    9.0492533E+05
   -2.52   300.000    5.198E+00    8.7003804E+05   -7.6675788E+02    1.5014030E-03    8.6669126E+05   -8.6497364E-03    8.7154771E+05
   -2.51   300.000    4.877E+00    8.3545741E+05   -1.0497733E+03    2.6257742E-03    8.3127843E+05   -6.6660597E-03    8.3691224E+05
   -2.50   300.000    4.569E+00    7.9866448E+05   -1.6363639E+03    3.0376536E-03    7.9331816E+05   -4.7056652E-03    7.9983431E+05
   -2.49   300.000    4.274E+00    7.5805934E+05   -2.2180638E+03    2.6595408E-03    7.5149878E+05   -2.9369697E-03    7.5885277E+05
   -2.48   300.000    3.992E+00    7.1278882E+05   -2.5347976E+03    1.6778139E-03    7.0527655E+05   -1.4686591E-03    7.1328427E+05
   -2.47   300.000    3.723E+00    6.6326061E+05   -2.4895789E+03    4.3858003E-04    6.5527451E+05   -4.0040557E-04    6.6366661E+05
   -2.46   300.000    3.468E+00    6.1106683E+05   -2.1353479E+03   -7.1466358E-04    6.0315515E+05    1.8004305E-04    6.1161880E+05
   -2.45   300.000    3.224E+00    5.5848015E+05   -1.5927797E+03   -1.5753471E-03    5.5110899E+05    2.4455256E-04    5.5930932E+05
   -2.44   300.000    2.993E+00    5.0762772E+05   -9.7903929E+02   -2.1129149E-03    5.0105900E+05   -1.3953388E-04    5.0867306E+05
   -2.43   300.000    2.773E+00    4.5966033E+05   -3.7682324E+02   -2.4112922E-03    4.5391326E+05   -8.2233044E-04    4.6068807E+05
   -2.42   300.000    2.564E+00    4.1443436E+05    1.6561407E+02   -2.5664700E-03    4.0935376E+05   -1.6210158E-03    4.1515738E+05
   -2.41   300.000    2.365E+00    3.7095150E+05    6.2063108E+02   -2.6185607E-03    3.6633778E+05   -2.3710874E-03    3.7116697E+05
   -2.40   300.000    2.179E+00    3.2821610E+05    9.6833915E+02   -2.5518299E-03    3.2393842E+05   -2.9574792E-03    3.2787978E+05
   -2.39   300.000    2.004E+00    2.8589191E+05    1.1946860E+03   -2.3398322E-03    2.8193192E+05   -3.3237718E-03    2.8510533E+05
   -2.38   300.000    1.842E+00    2.4441746E+05    1.2992512E+03   -1.9885902E-03    2.4084049E+05   -3.4647267E-03    2.4335893E+05
   -2.37   300.000    1.694E+00    2.0470089E+05    1.3004025E+03   -1.5477927E-03    2.0159092E+05   -3.4080428E-03    2.0354969E+05
   -2.36   300.000    1.561E+00    1.6772772E+05    1.2285528E+03   -1.0914437E-03    1.6513304E+05   -3.1942181E-03    1.6661708E+05
   -2.35   300.000    1.444E+00    1.3431309E+05    1.1128262E+03   -6.8773435E-04    1.3222777E+05   -2.8644862E-03    1.3331968E+05
   -2.34   300.000    1.344E+00    1.0502226E+05    9.7319637E+02   -3.7737483E-04    1.0339762E+05   -2.4598428E-03    1.0417846E+05
   -2.33   300.000    1.261E+00    8.0165255E+04    8.2214300E+02   -1.6872597E-04    7.8931366E+04   -2.0235977E-03    7.9476327E+04
   -2.32   300.000    1.193E+00    5.9787144E+04    6.6984985E+02   -4.6615495E-05    5.8869995E+04   -1.5983204E-03    5.9243440E+04
   -2.31   300.000    1.140E+00    4.3658306E+04    5.2634474E+02    1.3998138E-05    4.2989282E+04   -1.2176246E-03    4.3242212E+04
   -2.30   300.000    1.100E+00    3.1310771E+04    3.9996752E+02    3.7162954E-05    3.0830655E+04   -9.0016185E-04    3.1000940E+04
   -2.29   300.000    1.071E+00    2.2130251E+04    2.9536619E+02    4.0759384E-05    2.1790411E+04   -6.4993240E-04    2.1904839E+04
   -2.28   300.000    1.049E+00    1.5466300E+04    2.1317997E+02    3.5913168E-05    1.5228400E+04   -4.6097986E-04    1.5305335E+04
   -2.27   300.000    1.034E+00    1.0718682E+04    1.5119450E+02    2.8579900E-05    1.0553560E+04   -3.2273483E-04    1.0605370E+04
   -2.26   300.000    1.024E+00    7.3833404E+03    1.0585902E+02    2.1480178E-05    7.2694610E+03   -2.2385857E-04    7.3044162E+03
   -2.25   300.000    1.016E+00    5.0638974E+03    7.3433965E+01    1.5590042E-05    4.9857197E+03   -1.5426361E-04    5.0093434E+03
   -2.24   300.000    1.011E+00    3.4625751E+03    5.0608740E+01    1.1065782E-05    3.4090824E+03   -1.0582279E-04    3.4250699E+03
   -2.23   300.000    1.008E+00    2.3626469E+03    3.4719434E+01    7.7409852E-06    2.3261289E+03   -7.2365588E-05    2.3369600E+03
   -2.22   300.000    1.005E+00    1.6097856E+03    2.3743738E+01    5.3631849E-06    1.5848956E+03   -4.9379765E-05    1.5922390E+03
   -2.21   300.000    1.003E+00    1.0957340E+03    1.6202523E+01    3.6919204E-06    1.0787880E+03   -3.3645370E-05    1.0837696E+03
   -2.20   300.000    1.002E+00    7.4532848E+02    1.1040015E+01    2.5305026E-06    7.3379984E+02   -2.2901505E-05    7.3718046E+02
   -2.19   300.000    1.002E+00    5.0674746E+02    7.5147327E+00    1.7294453E-06    4.9890835E+02   -1.5577728E-05    5.0120315E+02
   -2.18   300.000    1.001E+00    3.4443318E+02    5.1115429E+00    1.1797261E-06    3.3910466E+02   -1.0591073E-05    3.4066269E+02
   -2.17   300.000    1.001E+00    2.3406703E+02    3.4751659E+00    8.0379415E-07    2.3044589E+02   -7.1983833E-06    2.3150380E+02
   -2.16   300.000    1.001E+00    1.5905436E+02    2.3617707E+00    5.4735226E-07    1.5659383E+02   -4.8913640E-06    1.5731221E+02
   -2.15   300.000    1.000E+00    1.0808881E+02    1.6045654E+00    3.7277887E-07    1.0641699E+02   -3.3231348E-06    1.0690481E+02
   -2.14   300.000    1.000E+00    7.3475925E+01    1.0897058E+00    2.5419435E-07    7.2339927E+01   -2.2573239E-06    7.2671150E+01
   -2.13   300.000    1.000E+00    4.9984177E+01    7.3959314E-01    1.7389558E-07    4.9212077E+01   -1.5330210E-06    4.9436915E+01
   -2.12   300.000    1.000E+00    3.4060248E+01    5.0137090E-01    1.1983844E-07    3.3535157E+01   -1.0407523E-06    3.3687686E+01
   -2.11   300.000    1.000E+00    2.3294268E+01    3.3903391E-01    8.3889140E-08    2.2936673E+01   -7.0605753E-07    2.3040009E+01
   -2.10   300.000    1.000E+00    1.6056387E+01    2.2802743E-01    6.0627103E-08    1.5812128E+01   -4.7828502E-07    1.5881929E+01
   -2.09   300.000    1.000E+00    1.1250607E+01    1.5155204E-01    4.6539990E-08    1.1082688E+01   -3.2295216E-07    1.1129530E+01
   -2.08   300.000    1.000E+00    8.1491012E+00    9.8029981E-02    3.9499039E-08    8.0320841E+00   -2.1653739E-07    8.0630650E+00
   -2.07   300.000    1.000E+00    6.2821000E+00    5.9356476E-02    3.8440001E-08    6.1982590E+00   -1.4292410E-07    6.2180725E+00
   -2.06   300.000    1.000E+00    5.3667994E+00    2.9674285E-02    4.3203454E-08    5.3034332E+00   -9.0962350E-08    5.3150813E+00
   -2.05   300.000    1.000E+00    5.2645458E+00    4.4875272E-03    5.4511302E-08    5.2120550E+00   -5.2781278E-08    5.2173024E+00
   -2.04   300.000    1.000E+00    5.9598407E+00   -2.0018796E-02    7.4076284E-08    5.9102738E+00   -2.2597614E-08    5.9099154E+00
   -2.03   300.000    1.000E+00    7.5579887E+00   -4.7556246E-02    1.0486119E-07    7.5038374E+00    4.1597181E-09    7.4978191E+00
   -2.02   300.000    1.000E+00    1.0301029E+01   -8.2294488E-02    1.5152686E-07    1.0234092E+01    3.1540978E-08    1.0221502E+01
   -2.01   300.000    1.000E+00    1.4604352E+01   -1.2949154E-01    2.2113636E-07    1.4514495E+01    6.3687008E-08    1.4493426E+01
   -2.00   300.000    1.000E+00    2.1119515E+01   -1.9628731E-01    3.2422070E-07    2.0993139E+01    1.0545187E-07    2.0960397E+01
   -1.99   300.000    9.999E-01    3.0832697E+01   -2.9277861E-01    4.7636486E-07    3.0650687E+01    1.6312814E-07    3.0601310E+01
   -1.98   300.000    9.999E-01    4.5213552E+01   -4.3353452E-01    7.0054846E-07    4.4948399E+01    2.4537833E-07    4.4874905E+01
   -1.97   300.000    9.998E-01    6.6436662E+01   -6.3977246E-01    1.0305829E-06    6.6048337E+01    3.6450006E-07    6.5939586E+01
   -1.96   300.000    9.998E-01    9.7708377E+01   -9.4250538E-01    1.5161378E-06    9.7138361E+01    5.3818716E-07    9.6977864E+01
   -1.95   300.000    9.997E-01    1.4374695E+02   -1.3870947E+00    2.2300579E-06    1.4290956E+02    7.9199084E-07    1.4267297E+02
   -1.94   300.000    9.995E-01    2.1148515E+02   -2.0398086E+00    3.2789489E-06    2.1025498E+02    1.1627197E-06    2.0990641E+02
   -1.93   300.000    9.992E-01    3.1109429E+02   -2.9971855E+00    4.8183558E-06    3.0928813E+02    1.7030106E-06    3.0877464E+02
   -1.92   300.000    9.989E-01    4.5746844E+02   -4.3992073E+00    7.0742262E-06    4.5481947E+02    2.4871706E-06    4.5406305E+02
   -1.91   300.000    9.984E-01    6.7235914E+02   -6.4474029E+00    1.0372615E-05    6.6848075E+02    3.6179625E-06    6.6736632E+02
   -1.90   300.000    9.976E-01    9.8741025E+02   -9.4287912E+00    1.5179355E-05    9.8174648E+02    5.2329405E-06    9.8010430E+02
   -1.89   300.000    9.965E-01    1.4483986E+03   -1.3745513E+01    2.2149851E-05    1.4401590E+03    7.5066871E-06    1.4377388E+03
   -1.88   300.000    9.948E-01    2.1210038E+03   -1.9947069E+01    3.2184284E-05    2.1090843E+03    1.0641141E-05    2.1055172E+03
   -1.87   300.000    9.925E-01    3.0983393E+03   -2.8755443E+01    4.6471697E-05    3.0812382E+03    1.4830030E-05    3.0759830E+03
   -1.86   300.000    9.890E-01    4.5101325E+03   -4.1060544E+01    6.6480908E-05    4.4858932E+03    2.0178250E-05    4.4781627E+03
   -1.85   300.000    9.841E-01    6.5326355E+03   -5.7842655E+01    9.3808585E-05    6.4988842E+03    2.6565174E-05    6.4875571E+03
   -1.84   300.000    9.771E-01    9.3968425E+03   -7.9955067E+01    1.2972315E-04    9.3510563E+03    3.3493428E-05    9.3346043E+03
   -1.83   300.000    9.674E-01    1.3390463E+04   -1.0769964E+02    1.7418320E-04    1.3330682E+04    4.0108739E-05    1.3307207E+04
   -1.82   300.000    9.539E-01    1.8847385E+04   -1.4021443E+02    2.2419596E-04    1.8773614E+04    4.5812540E-05    1.8741217E+04
   -1.81   300.000    9.359E-01    2.6119953E+04   -1.7494634E+02    2.7187429E-04    2.6036297E+04    5.1986859E-05    2.5994132E+04
   -1.80   300.000    9.124E-01    3.5538110E+04   -2.0783950E+02    3.0357074E-04    3.5455024E+04    6.4670742E-05    3.5405314E+04
   -1.79   300.000    8.825E-01    4.7375151E+04   -2.3481958E+02    3.0223828E-04    4.7310007E+04    9.5961430E-05    4.7260467E+04
   -1.78   300.000    8.458E-01    6.1849456E+04   -2.5387282E+02    2.5380601E-04    6.1823002E+04    1.5964925E-04    6.1787711E+04
   -1.77   300.000    8.019E-01    7.9172892E+04   -2.6496495E+02    1.5438591E-04    7.9200987E+04    2.5873052E-04    7.9197491E+04
   -1.76   300.000    7.510E-01    9.9604352E+04   -2.6554285E+02    1.2952983E-05    9.9689019E+04    3.7299247E-04    9.9732501E+04
   -1.75   300.000    6.933E-01    1.2342020E+05   -2.4491069E+02   -1.5072753E-04    1.2354697E+05    4.6596199E-04    1.2364525E+05
   -1.74   300.000    6.290E-01    1.5073625E+05   -1.8567585E+02   -3.0477742E-04    1.5088070E+05    5.2172156E-04    1.5103018E+05
   -1.73   300.000    5.583E-01    1.8123649E+05   -7.4851141E+01   -3.9460626E-04    1.8137513E+05    5.8896711E-04    1.8155240E+05
   -1.72   300.000    4.813E-01    2.1401680E+05    8.5386832E+01   -3.3469124E-04    2.1413470E+05    7.8690040E-04    2.1428519E+05
   -1.71   300.000    3.983E-01    2.4778311E+05    2.7825096E+02   -2.6721142E-05    2.4787443E+05    1.2525569E-03    2.4791246E+05
   -1.70   300.000    3.098E-01    2.8143148E+05    4.8052583E+02    5.8839610E-04    2.8149395E+05    2.0627523E-03    2.8132640E+05
   -1.69   300.000    2.166E-01    3.1468802E+05    6.6826372E+02    1.4696933E-03    3.1471427E+05    3.1845587E-03    3.1427910E+05
   -1.68   300.000    1.194E-01    3.4834493E+05    8.2107863E+02    2.4444325E-03    3.4831452E+05    4.4740466E-03    3.4761149E+05
   -1.67   300.000    1.892E-02    3.8392981E+05    9.2948131E+02    3.2298516E-03    3.8380596E+05    5.7014848E-03    3.8290615E+05
   -1.66   300.000   -8.475E-02    4.2310435E+05    9.9773304E+02    3.5099602E-03    4.2283806E+05    6.5842060E-03    4.2187321E+05
   -1.65   300.000   -1.918E-01    4.6718136E+05    1.0342072E+03    3.0399180E-03    4.6672182E+05    6.8412340E-03    4.6585518E+05
   -1.64   300.000   -3.026E-01    5.1683263E+05    1.0380768E+03    1.7203747E-03    5.1613779E+05    6.2815808E-03    5.1551421E+05
   -1.63   300.000   -4.179E-01    5.7182438E+05    9.9820620E+02   -4.1068516E-04    5.7086615E+05    4.8846695E-03    5.7055227E+05
   -1.62   300.000   -5.381E-01    6.3077626E+05    9.0576921E+02   -3.2580020E-03    6.2954463E+05    2.8018355E-03    6.2949597E+05
   -1.61   300.000   -6.637E-01    6.9120238E+05    7.6784910E+02   -6.7372373E-03    6.8972422E+05    2.6170814E-04    6.8982246E+05
   -1.60   300.000   -7.946E-01    7.5001984E+05    6.1250580E+02   -1.0743478E-02    7.4840079E+05   -2.5449089E-03    7.4856310E+05
   -1.59   300.000   -9.305E-01    8.0432460E+05    4.8484694E+02   -1.5026188E-02    8.0278879E+05   -5.4886421E-03    8.0308072E+05
   -1.58   300.000   -1.071E+00    8.5204213E+05    4.3440399E+02   -1.9104773E-02    8.5091171E+05   -8.4024478E-03    8.5156296E+05
   -1.57   300.000   -1.214E+00    8.9235052E+05    4.9355014E+02   -2.2374239E-02    8.9192575E+05   -1.0973581E-02    8.9320480E+05
   -1.56   300.000   -1.360E+00    9.2600027E+05    6.5420452E+02   -2.4372860E-02    9.2638975E+05   -1.2779433E-02    9.2841769E+05
   -1.55   300.000   -1.507E+00    9.5538807E+05    8.5806793E+02   -2.4981274E-02    9.5641529E+05   -1.3468449E-02    9.5907901E+05
   -1.54   300.000   -1.654E+00    9.8411963E+05    1.0121217E+03   -2.4360021E-02    9.8538430E+05   -1.2915730E-02    9.8843084E+05
   -1.53   300.000   -1.802E+00    1.0162375E+06    1.0257895E+03   -2.2695752E-02    1.0172744E+06   -1.1217705E-02    1.0204971E+06
   -1.52   300.000   -1.951E+00    1.0555902E+06    8.4857923E+02   -2.0017352E-02    1.0560066E+06   -8.5860024E-03    1.0593701E+06
   -1.51   300.000   -2.102E+00    1.1054570E+06    4.8474294E+02   -1.6267389E-02    1.1049911E+06   -5.2994909E-03    1.1086374E+06
   -1.50   300.000   -2.256E+00    1.1680105E+06   -1.7377582E+01   -1.1572423E-02    1.1665390E+06   -1.7695248E-03    1.1707201E+06
   -1.49   300.000   -2.415E+00    1.2432885E+06   -5.8258101E+02   -6.4888333E-03    1.2408349E+06    1.3857755E-03    1.2458315E+06
   -1.48   300.000   -2.580E+00    1.3281299E+06   -1.1171243E+03   -2.0304649E-03    1.3248922E+06    3.4056432E-03    1.3309299E+06
   -1.47   300.000   -2.751E+00    1.4161004E+06   -1.5125418E+03    5.7574625E-04    1.4124673E+06    3.6242559E-03    1.4196115E+06
   -1.46   300.000   -2.929E+00    1.4989670E+06   -1.6640512E+03    3.2277582E-04    1.4954613E+06    1.7511327E-03    1.5034929E+06
   -1.45   300.000   -3.112E+00    1.5691216E+06   -1.5151342E+03   -3.1456770E-03    1.5662409E+06   -1.9827375E-03    1.5745865E+06
   -1.44   300.000   -3.300E+00    1.6216635E+06   -1.1068255E+03   -9.3201157E-03    1.6196817E+06   -6.8735833E-03    1.6275266E+06
   -1.43   300.000   -3.491E+00    1.6551958E+06   -5.8167129E+02   -1.6930062E-02    1.6540602E+06   -1.1924457E-02    1.6606869E+06
   -1.42   300.000   -3.684E+00    1.6712727E+06   -1.1822062E+02   -2.4316972E-02    1.6706733E+06   -1.6079703E-02    1.6758368E+06
   -1.41   300.000   -3.878E+00    1.6731344E+06    1.5807759E+02   -2.9916909E-02    1.6726775E+06   -1.8467600E-02    1.6767409E+06
   -1.40   300.000   -4.072E+00    1.6644337E+06    2.1681783E+02   -3.2649816E-02    1.6637933E+06   -1.8578464E-02    1.6675461E+06
   -1.39   300.000   -4.265E+00    1.6483025E+06    1.0131204E+02   -3.2060839E-02    1.6472784E+06   -1.6283773E-02    1.6516039E+06
   -1.38   300.000   -4.458E+00    1.6270171E+06   -1.1766150E+02   -2.8221192E-02    1.6255115E+06   -1.1706881E-02    1.6310811E+06
   -1.37   300.000   -4.649E+00    1.6025001E+06   -3.7731565E+02   -2.1552249E-02    1.6004550E+06   -5.1146200E-03    1.6075331E+06
   -1.36   300.000   -4.840E+00    1.5772819E+06   -6.3849643E+02   -1.2723268E-02    1.5746147E+06    3.0318488E-03    1.5830078E+06
   -1.35   300.000   -5.031E+00    1.5548469E+06   -8.8566918E+02   -2.6205574E-03    1.5514063E+06    1.1959537E-02    1.5605651E+06
   -1.34   300.000   -5.223E+00    1.5386563E+06   -1.1170088E+03    7.7107559E-03    1.5342051E+06    2.0611549E-02    1.5434224E+06
   -1.33   300.000   -5.420E+00    1.5304397E+06   -1.3301182E+03    1.7210428E-02    1.5246699E+06    2.7883515E-02    1.5332617E+06
   -1.32   300.000   -5.623E+00    1.5291376E+06   -1.5079495E+03    2.4995366E-02    1.5217266E+06    3.2928159E-02    1.5291183E+06
   -1.31   300.000   -5.835E+00    1.5313709E+06   -1.6098492E+03    3.0515381E-02    1.5220749E+06    3.5365589E-02    1.5278108E+06
   -1.30   300.000   -6.055E+00    1.5333198E+06   -1.5765311E+03    3.3635061E-02    1.5220744E+06    3.5365295E-02    1.5258366E+06
   -1.29   300.000   -6.284E+00    1.5330296E+06   -1.3581076E+03    3.4667737E-02    1.5200134E+06    3.3636694E-02    1.5217154E+06
   -1.28   300.000   -6.519E+00    1.5315846E+06   -9.5768449E+02    3.4343311E-02    1.5172086E+06    3.1291391E-02    1.5171275E+06
   -1.27   300.000   -6.759E+00    1.5321990E+06   -4.5332175E+02    3.3627807E-02    1.5170216E+06    2.9498778E-02    1.5158437E+06
   -1.26   300.000   -7.001E+00    1.5380737E+06    3.9742397E+01    3.3401007E-02    1.5226673E+06    2.9015439E-02    1.5213627E+06
   -1.25   300.000   -7.246E+00    1.5508747E+06    4.4680203E+02    3.4155212E-02    1.5356886E+06    2.9879382E-02    1.5352522E+06
   -1.24   300.000   -7.490E+00    1.5708293E+06    7.7581099E+02    3.5869905E-02    1.5560950E+06    3.1504727E-02    1.5572519E+06
   -1.23   300.000   -7.734E+00    1.5978532E+06    1.0781139E+03    3.8054412E-02    1.5835621E+06    3.3068270E-02    1.5865164E+06
   -1.22   300.000   -7.977E+00    1.6323977E+06    1.3683746E+03    3.9888814E-02    1.6183515E+06    3.3853809E-02    1.6226586E+06
   -1.21   300.000   -8.218E+00    1.6754474E+06    1.5906751E+03    4.0486388E-02    1.6613467E+06    3.3399983E-02    1.6659855E+06
   -1.20   300.000   -8.457E+00    1.7282114E+06    1.6781077E+03    3.9279200E-02    1.7137205E+06    3.1578774E-02    1.7173237E+06
   -1.19   300.000   -8.695E+00    1.7919377E+06    1.6625199E+03    3.6311772E-02    1.7766731E+06    2.8683849E-02    1.7777254E+06
   -1.18   300.000   -8.932E+00    1.8676004E+06    1.7372901E+03    3.2170624E-02    1.8510426E+06    2.5372644E-02    1.8478924E+06
   -1.17   300.000   -9.169E+00    1.9556310E+06    2.2061826E+03    2.7591989E-02    1.9370221E+06    2.2342073E-02    1.9277621E+06
   -1.16   300.000   -9.407E+00    2.0565302E+06    3.3224997E+03    2.3113896E-02    2.0348361E+06    1.9923120E-02    2.0172938E+06
   -1.15   300.000   -9.647E+00    2.1721616E+06    5.0971844E+03    1.9049211E-02    2.1461629E+06    1.7921801E-02    2.1182026E+06
   -1.14   300.000   -9.892E+00    2.3057743E+06    7.2170917E+03    1.5691941E-02    2.2743283E+06    1.5828561E-02    2.2344352E+06
   -1.13   300.000   -1.014E+01    2.4591125E+06    9.1749245E+03    1.3489648E-02    2.4215933E+06    1.3210528E-02    2.3695129E+06
   -1.12   300.000   -1.040E+01    2.6278436E+06    1.0527856E+04    1.3052651E-02    2.5846754E+06    9.9994771E-03    2.5219203E+06
   -1.11   300.000   -1.067E+01    2.7992010E+06    1.1079902E+04    1.5049550E-02    2.7522580E+06    6.5412005E-03    2.6824256E+06
   -1.10   300.000   -1.095E+01    2.9548788E+06    1.0897470E+04    2.0040609E-02    2.9074266E+06    3.4584413E-03    2.8361781E+06
   -1.09   300.000   -1.123E+01    3.0779718E+06    1.0232820E+04    2.8230850E-02    3.0339484E+06    1.4159916E-03    2.9683058E+06
   -1.08   300.000   -1.153E+01    3.1595257E+06    9.4341231E+03    3.9170867E-02    3.1223497E+06    8.4166506E-04    3.0691573E+06
   -1.07   300.000   -1.182E+01    3.2009911E+06    8.8421805E+03    5.1559922E-02    3.1724810E+06    1.6941124E-03    3.1365686E+06
   -1.06   300.000   -1.212E+01    3.2115722E+06    8.6549943E+03    6.3343444E-02    3.1915653E+06    3.4184674E-03    3.1746300E+06
   -1.05   300.000   -1.242E+01    3.2020380E+06    8.7979605E+03    7.2195824E-02    3.1888326E+06    5.1524177E-03    3.1895724E+06
   -1.04   300.000   -1.272E+01    3.1789212E+06    8.9156361E+03    7.6279865E-02    3.1701546E+06    6.0813262E-03    3.1852372E+06
   -1.03   300.000   -1.302E+01    3.1430536E+06    8.5735698E+03    7.4938136E-02    3.1365301E+06    5.7448745E-03    3.1616967E+06
   -1.02   300.000   -1.332E+01    3.0927682E+06    7.5576308E+03    6.8900869E-02    3.0869697E+06    4.1276983E-03    3.1179564E+06
   -1.01   300.000   -1.362E+01    3.0287823E+06    6.0211548E+03    5.9879774E-02    3.0230025E+06    1.5094802E-03    3.0562105E+06
   -1.00   300.000   -1.392E+01    2.9578822E+06    4.3770523E+03    4.9841653E-02    2.9520435E+06   -1.7687932E-03    2.9848629E+06
   -0.99   300.000   -1.421E+01    2.8938354E+06    3.0510267E+03    4.0382474E-02    2.8881452E+06   -5.4141462E-03    2.9188930E+06
   -0.98   300.000   -1.450E+01    2.8546986E+06    2.2561913E+03    3.2405904E-02    2.8493318E+06   -9.1107859E-03    2.8769681E+06
   -0.97   300.000   -1.479E+01    2.8572718E+06    1.8986322E+03    2.6094557E-02    2.8522024E+06   -1.2418109E-02    2.8760997E+06
   -0.96   300.000   -1.508E+01    2.9116068E+06    1.6759139E+03    2.1120157E-02    2.9066072E+06   -1.4835773E-02    2.9265205E+06
   -0.95   300.000   -1.537E+01    3.0183935E+06    1.3352201E+03    1.7020520E-02    3.0131313E+06   -1.6074537E-02    3.0293184E+06
   -0.94   300.000   -1.567E+01    3.1695230E+06    9.2682955E+02    1.3585030E-02    3.1636640E+06   -1.6342520E-02    3.1770567E+06
   -0.93   300.000   -1.597E+01    3.3500195E+06    8.6009899E+02    1.1054562E-02    3.3432865E+06   -1.6378037E-02    3.3556510E+06
   -0.92   300.000   -1.629E+01    3.5394884E+06    1.7062243E+03    1.0032426E-02    3.5316919E+06   -1.7121865E-02    3.5456296E+06
   -0.91   300.000   -1.662E+01    3.7131059E+06    3.8740616E+03    1.1141680E-02    3.7041732E+06   -1.9183366E-02    3.7226926E+06
   -0.90   300.000   -1.696E+01    3.8443666E+06    7.3740859E+03    1.4569755E-02    3.8343537E+06   -2.2417166E-02    3.8599016E+06
   -0.89   300.000   -1.730E+01    3.9111527E+06    1.1823715E+04    1.9719772E-02    3.9001774E+06   -2.5895654E-02    3.9335692E+06
   -0.88   300.000   -1.766E+01    3.9030489E+06    1.6658731E+04    2.5225128E-02    3.8911016E+06   -2.8346013E-02    3.9311732E+06
   -0.87   300.000   -1.802E+01    3.8258530E+06    2.1364398E+04    2.9438196E-02    3.8125477E+06   -2.8827864E-02    3.8568866E+06
   -0.86   300.000   -1.837E+01    3.7008972E+06    2.5559065E+04    3.1146903E-02    3.6853700E+06   -2.7243632E-02    3.7315297E+06
   -0.85   300.000   -1.874E+01    3.5592113E+06    2.8906716E+04    3.0050591E-02    3.5403537E+06   -2.4351134E-02    3.5866603E+06
   -0.84   300.000   -1.910E+01    3.4325407E+06    3.1004635E+04    2.6737819E-02    3.4094886E+06   -2.1284591E-02    3.4551167E+06
   -0.83   300.000   -1.946E+01    3.3449949E+06    3.1435377E+04    2.2305760E-02    3.3175359E+06   -1.8946130E-02    3.3621259E+06
   -0.82   300.000   -1.983E+01    3.3086017E+06    2.9993097E+04    1.7928585E-02    3.2772471E+06   -1.7687017E-02    3.3205068E+06
   -0.81   300.000   -2.019E+01    3.3231551E+06    2.6882026E+04    1.4576696E-02    3.2889707E+06   -1.7414459E-02    3.3305954E+06
   -0.80   300.000   -2.056E+01    3.3789147E+06    2.2687053E+04    1.2904056E-02    3.3433722E+06   -1.7916296E-02    3.3833509E+06
   -0.79   300.000   -2.092E+01    3.4612576E+06    1.8120739E+04    1.3207194E-02    3.4261755E+06   -1.9094173E-02    3.4652150E+06
   -0.78   300.000   -2.129E+01    3.5566194E+06    1.3744066E+04    1.5374023E-02    3.5240378E+06   -2.0990737E-02    3.5636774E+06
   -0.77   300.000   -2.166E+01    3.6575115E+06    9.8597001E+03    1.8836121E-02    3.6293888E+06   -2.3719733E-02    3.6715788E+06
   -0.76   300.000   -2.203E+01    3.7635552E+06    6.6057962E+03    2.2611013E-02    3.7413889E+06   -2.7384445E-02    3.7876786E+06
   -0.75   300.000   -2.241E+01    3.8777168E+06    4.1141776E+03    2.5516135E-02    3.8622966E+06   -3.1948341E-02    3.9130099E+06
   -0.74   300.000   -2.279E+01    4.0008807E+06    2.5722859E+03    2.6558047E-02    3.9922875E+06   -3.7088531E-02    4.0460972E+06
   -0.73   300.000   -2.318E+01    4.1295994E+06    2.1251264E+03    2.5373680E-02    4.1274259E+06   -4.2179916E-02    4.1816379E+06
   -0.72   300.000   -2.359E+01    4.2587601E+06    2.6834599E+03    2.2481924E-02    4.2624368E+06   -4.6459221E-02    4.3139738E+06
   -0.71   300.000   -2.400E+01    4.3857240E+06    3.7858270E+03    1.9108217E-02    4.3947278E+06   -4.9245682E-02    4.4412984E+06
   -0.70   300.000   -2.442E+01    4.5112179E+06    4.6464524E+03    1.6572757E-02    4.5249132E+06   -5.0113977E-02    4.5656121E+06
   -0.69   300.000   -2.485E+01    4.6360987E+06    4.4235730E+03    1.5583596E-02    4.6532922E+06   -4.9026873E-02    4.6883456E+06
   -0.68   300.000   -2.530E+01    4.7571953E+06    2.6068780E+03    1.5928044E-02    4.7759454E+06   -4.6393182E-02    4.8060984E+06
   -0.67   300.000   -2.575E+01    4.8660971E+06   -6.9480422E+02    1.6781650E-02    4.8842482E+06   -4.2935508E-02    4.9104230E+06
   -0.66   300.000   -2.622E+01    4.9523007E+06   -4.7838758E+03    1.7341646E-02    4.9685565E+06   -3.9412575E-02    4.9917606E+06
   -0.65   300.000   -2.669E+01    5.0084525E+06   -8.7460169E+03    1.7254371E-02    5.0232674E+06   -3.6435431E-02    5.0443310E+06
   -0.64   300.000   -2.716E+01    5.0336682E+06   -1.1904754E+04    1.6585559E-02    5.0493563E+06   -3.4473378E-02    5.0684970E+06
   -0.63   300.000   -2.764E+01    5.0332985E+06   -1.4037451E+04    1.5516209E-02    5.0533687E+06   -3.3886957E-02    5.0700091E+06
   -0.62   300.000   -2.812E+01    5.0170275E+06   -1.5294545E+04    1.4091660E-02    5.0452234E+06   -3.4834499E-02    5.0582617E+06
   -0.61   300.000   -2.860E+01    4.9969639E+06   -1.6001261E+04    1.2202780E-02    5.0364847E+06   -3.7087451E-02    5.0447933E+06
   -0.60   300.000   -2.907E+01    4.9849846E+06   -1.6483938E+04    9.7709507E-03    5.0380228E+06   -3.9935410E-02    5.0408509E+06
   -0.59   300.000   -2.955E+01    4.9890151E+06   -1.6943595E+04    6.9809127E-03    5.0564553E+06   -4.2368423E-02    5.0535706E+06
   -0.58   300.000   -3.002E+01    5.0105122E+06   -1.7379399E+04    4.3952670E-03    5.0916465E+06   -4.3503807E-02    5.0833167E+06
   -0.57   300.000   -3.049E+01    5.0454436E+06   -1.7586765E+04    2.8672725E-03    5.1378313E+06   -4.2925509E-02    5.1249201E+06
   -0.56   300.000   -3.097E+01    5.0877962E+06   -1.7255230E+04    3.2639634E-03    5.1875822E+06   -4.0627288E-02    5.1718397E+06
   -0.55   300.000   -3.145E+01    5.1321106E+06   -1.6159661E+04    6.0799294E-03    5.2349035E+06   -3.6639564E-02    5.2191368E+06
   -0.54   300.000   -3.193E+01    5.1731003E+06   -1.4350345E+04    1.1103223E-02    5.2750188E+06   -3.0721902E-02    5.2627770E+06
   -0.53   300.000   -3.242E+01    5.2045833E+06   -1.2176850E+04    1.7373246E-02    5.3028215E+06   -2.2417130E-02    5.2975998E+06
   -0.52   300.000   -3.290E+01    5.2213169E+06   -1.0086664E+04    2.3557660E-02    5.3139240E+06   -1.1446724E-02    5.3182246E+06
   -0.51   300.000   -3.338E+01    5.2230467E+06   -8.3642708E+03    2.8523577E-02    5.3082780E+06    1.8338918E-03    5.3229601E+06
   -0.50   300.000   -3.386E+01    5.2156733E+06   -7.0357389E+03    3.1669919E-02    5.2916316E+06    1.6251305E-02    5.3158633E+06
   -0.49   300.000   -3.434E+01    5.2070895E+06   -5.9690875E+03    3.2832491E-02    5.2720797E+06    3.0069090E-02    5.3038442E+06
   -0.48   300.000   -3.482E+01    5.2016635E+06   -5.0064949E+03    3.1992138E-02    5.2550009E+06    4.1586740E-02    5.2917314E+06
   -0.47   300.000   -3.529E+01    5.1985379E+06   -3.9951435E+03    2.9131737E-02    5.2411153E+06    4.9752489E-02    5.2800874E+06
   -0.46   300.000   -3.577E+01    5.1943049E+06   -2.7559553E+03    2.4348724E-02    5.2283839E+06    5.4419569E-02    5.2669090E+06
   -0.45   300.000   -3.624E+01    5.1870813E+06   -1.1243776E+03    1.8058479E-02    5.2153594E+06    5.6135732E-02    5.2510122E+06
   -0.44   300.000   -3.672E+01    5.1793010E+06    8.8974043E+02    1.1050624E-02    5.2038655E+06    5.5674958E-02    5.2347548E+06
   -0.43   300.000   -3.719E+01    5.1776519E+06    2.9333369E+03    4.2848335E-03    5.1995045E+06    5.3605380E-02    5.2244350E+06
   -0.42   300.000   -3.766E+01    5.1896903E+06    4.2762649E+03   -1.4608076E-03    5.2090255E+06    5.0097184E-02    5.2275557E+06
   -0.41   300.000   -3.813E+01    5.2190784E+06    3.9757374E+03   -5.8362933E-03    5.2359106E+06    4.5021220E-02    5.2484247E+06
   -0.40   300.000   -3.860E+01    5.2626988E+06    1.2458053E+03   -8.9270832E-03    5.2773099E+06    3.8218332E-02    5.2850577E+06
   -0.39   300.000   -3.906E+01    5.3108323E+06   -4.0511429E+03   -1.1124507E-02    5.3238292E+06    2.9779174E-02    5.3288012E+06
   -0.38   300.000   -3.951E+01    5.3493055E+06   -1.1077640E+04   -1.2995537E-02    5.3613970E+06    2.0254747E-02    5.3660911E+06
   -0.37   300.000   -3.996E+01    5.3630558E+06   -1.8205187E+04   -1.5119569E-02    5.3747307E+06    1.0711486E-02    5.3819353E+06
   -0.36   300.000   -4.041E+01    5.3414082E+06   -2.3711474E+04   -1.7832950E-02    5.3526218E+06    2.4911888E-03    5.3651358E+06
   -0.35   300.000   -4.084E+01    5.2833983E+06   -2.6525011E+04   -2.1032888E-02    5.2933502E+06   -3.3145576E-03    5.3135381E+06
   -0.34   300.000   -4.127E+01    5.1992359E+06   -2.6488029E+04   -2.4254503E-02    5.2063902E+06   -6.3748832E-03    5.2357795E+06
   -0.33   300.000   -4.169E+01    5.1060333E+06   -2.4046120E+04   -2.6959804E-02    5.1084985E+06   -7.2575817E-03    5.1477448E+06
   -0.32   300.000   -4.211E+01    5.0209588E+06   -1.9754194E+04   -2.8773825E-02    5.0170990E+06   -7.1173490E-03    5.0662992E+06
   -0.31   300.000   -4.252E+01    4.9568152E+06   -1.4045227E+04   -2.9561778E-02    4.9457395E+06   -7.1522934E-03    5.0047211E+06
   -0.30   300.000   -4.293E+01    4.9213273E+06   -7.3683624E+03   -2.9438664E-02    4.9030190E+06   -8.1110651E-03    4.9712930E+06
   -0.29   300.000   -4.333E+01    4.9173251E+06   -4.3988697E+02   -2.8730834E-02    4.8925743E+06   -1.0036852E-02    4.9690033E+06
   -0.28   300.000   -4.373E+01    4.9419250E+06    5.7298087E+03   -2.7803518E-02    4.9123780E+06   -1.2332057E-02    4.9949257E+06
   -0.27   300.000   -4.413E+01    4.9862627E+06    1.0144153E+04   -2.6818222E-02    4.9545494E+06   -1.4152106E-02    5.0404337E+06
   -0.26   300.000   -4.453E+01    5.0376802E+06    1.2283355E+04   -2.5681706E-02    5.0071940E+06   -1.4983117E-02    5.0934310E+06
   -0.25   300.000   -4.492E+01    5.0838063E+06    1.2402700E+04   -2.4306544E-02    5.0578770E+06   -1.5041556E-02    5.1419364E+06
   -0.24   300.000   -4.532E+01    5.1167257E+06    1.1416917E+04   -2.2908352E-02    5.0975298E+06   -1.5166525E-02    5.1777657E+06
   -0.23   300.000   -4.571E+01    5.1357027E+06    1.0393656E+04   -2.1959208E-02    5.1236335E+06   -1.6286424E-02    5.1992493E+06
   -0.22   300.000   -4.610E+01    5.1470808E+06    9.9756886E+03   -2.1809023E-02    5.1409834E+06   -1.8917381E-02    5.2115727E+06
   -0.21   300.000   -4.650E+01    5.1610174E+06    1.0122516E+04   -2.2373222E-02    5.1590147E+06   -2.3075051E-02    5.2240825E+06
   -0.20   300.000   -4.690E+01    5.1868375E+06    1.0337391E+04   -2.3180835E-02    5.1871543E+06   -2.8552773E-02    5.2460512E+06
   -0.19   300.000   -4.730E+01    5.2292449E+06    1.0167399E+04   -2.3694797E-02    5.2306864E+06   -3.5185083E-02    5.2829587E+06
   -0.18   300.000   -4.771E+01    5.2861248E+06    9.5598220E+03   -2.3643478E-02    5.2882419E+06   -4.2821426E-02    5.3339239E+06
   -0.17   300.000   -4.812E+01    5.3479885E+06    8.8422249E+03   -2.3198823E-02    5.3510839E+06   -5.1123413E-02    5.3904888E+06
   -0.16   300.000   -4.855E+01    5.3995942E+06    8.4276697E+03   -2.2948271E-02    5.4045734E+06   -5.9475412E-02    5.4378208E+06
   -0.15   300.000   -4.898E+01    5.4240007E+06    8.4900895E+03   -2.3660215E-02    5.4319433E+06   -6.7105557E-02    5.4589895E+06
   -0.14   300.000   -4.942E+01    5.4080744E+06    8.8137601E+03   -2.5928295E-02    5.4196128E+06   -7.3273611E-02    5.4409978E+06
   -0.13   300.000   -4.986E+01    5.3472091E+06    8.9049065E+03   -2.9877635E-02    5.3621498E+06   -7.7379460E-02    5.3795797E+06
   -0.12   300.000   -5.031E+01    5.2466662E+06    8.2682849E+03   -3.5103990E-02    5.2641996E+06   -7.9023488E-02    5.2800217E+06
   -0.11   300.000   -5.076E+01    5.1183492E+06    6.6282274E+03   -4.0860068E-02    5.1376527E+06   -7.8139622E-02    5.1535153E+06
   -0.10   300.000   -5.122E+01    4.9744971E+06    3.9748254E+03   -4.6333846E-02    4.9951904E+06   -7.5172586E-02    5.0111483E+06
   -0.09   300.000   -5.168E+01    4.8223908E+06    5.1381930E+02   -5.0849017E-02    4.8445210E+06   -7.1078609E-02    4.8593812E+06
   -0.08   300.000   -5.215E+01    4.6645886E+06   -3.3603682E+03   -5.3952306E-02    4.6883026E+06   -6.7010310E-02    4.7007756E+06
   -0.07   300.000   -5.263E+01    4.5048623E+06   -7.0846717E+03   -5.5455950E-02    4.5301490E+06   -6.3875381E-02    4.5397831E+06
   -0.06   300.000   -5.313E+01    4.3535150E+06   -1.0040808E+04   -5.5444078E-02    4.3802022E+06   -6.2114446E-02    4.3875175E+06
   -0.05   300.000   -5.365E+01    4.2255363E+06   -1.1749458E+04   -5.4148695E-02    4.2534171E+06   -6.1770283E-02    4.2594567E+06
   -0.04   300.000   -5.418E+01    4.1332617E+06   -1.2007054E+04   -5.1695795E-02    4.1621480E+06   -6.2588688E-02    4.1680012E+06
   -0.03   300.000   -5.473E+01    4.0815290E+06   -1.0888847E+04   -4.7934986E-02    4.1111785E+06   -6.3974415E-02    4.1177573E+06
   -0.02   300.000   -5.530E+01    4.0693375E+06   -8.6578049E+03   -4.2539311E-02    4.0993713E+06   -6.4943191E-02    4.1073302E+06
   -0.01   300.000   -5.589E+01    4.0940763E+06   -5.6352850E+03   -3.5286802E-02    4.1240178E+06   -6.4281196E-02    4.1336585E+06
    0.00   300.000   -5.650E+01    4.1530177E+06   -2.0805804E+03   -2.6290676E-02    4.1824455E+06   -6.0907305E-02    4.1936220E+06
    0.01   300.000   -5.713E+01    4.2418000E+06    1.8600574E+03   -1.6058268E-02    4.2704450E+06   -5.4239546E-02    4.2825897E+06
    0.02   300.000   -5.777E+01    4.3534026E+06    6.0999292E+03   -5.3855053E-03    4.3810427E+06   -4.4365945E-02    4.3933597E+06
    0.03   300.000   -5.841E+01    4.4795903E+06    1.0484465E+04    4.8860188E-03    4.5058047E+06   -3.1952660E-02    4.5175348E+06
    0.04   300.000   -5.906E+01    4.6128851E+06    1.4676840E+04    1.4182699E-02    4.6369320E+06   -1.7977374E-02    4.6475102E+06
    0.05   300.000   -5.971E+01    4.7464642E+06    1.8172360E+04    2.2427990E-02    4.7674911E+06   -3.4643207E-03    4.7764746E+06
    0.06   300.000   -6.036E+01    4.8725681E+06    2.0501944E+04    3.0016906E-02    4.8900349E+06    1.0642262E-02    4.8968752E+06
    0.07   300.000   -6.101E+01    4.9817564E+06    2.1510365E+04    3.7484474E-02    4.9956726E+06    2.3471583E-02    4.9996108E+06
    0.08   300.000   -6.165E+01    5.0635965E+06    2.1478277E+04    4.5026106E-02    5.0743462E+06    3.4207402E-02    5.0746690E+06
    0.09   300.000   -6.228E+01    5.1077915E+06    2.0986234E+04    5.2183680E-02    5.1157624E+06    4.2150752E-02    5.1123040E+06
    0.10   300.000   -6.291E+01    5.1053588E+06    2.0633430E+04    5.7920178E-02    5.1107310E+06    4.6841661E-02    5.1042201E+06
    0.11   300.000   -6.353E+01    5.0508282E+06    2.0767030E+04    6.1002369E-02    5.0536269E+06    4.8176214E-02    5.0455575E+06
    0.12   300.000   -6.414E+01    4.9462657E+06    2.1312903E+04    6.0409886E-02    4.9465426E+06    4.6494533E-02    4.9385879E+06
    0.13   300.000   -6.475E+01    4.8050473E+06    2.1780633E+04    5.5586007E-02    4.8030705E+06    4.2574457E-02    4.7963451E+06
    0.14   300.000   -6.536E+01    4.6509651E+06    2.1488825E+04    4.6543261E-02    4.6473932E+06    3.7397765E-02    4.6419515E+06
    0.15   300.000   -6.598E+01    4.5111057E+06    1.9945030E+04    3.3880573E-02    4.5070852E+06    3.1716463E-02    4.5018700E+06
    0.16   300.000   -6.661E+01    4.4065103E+06    1.7188908E+04    1.8726815E-02    4.4035274E+06    2.5748814E-02    4.3967227E+06
    0.17   300.000   -6.726E+01    4.3462111E+06    1.3868606E+04    2.6345877E-03    4.3455974E+06    1.9331510E-02    4.3352130E+06
    0.18   300.000   -6.792E+01    4.3270181E+06    1.0932718E+04   -1.2565918E-02    4.3293137E+06    1.2429085E-02    4.3138086E+06
    0.19   300.000   -6.861E+01    4.3378678E+06    9.0779226E+03   -2.5034154E-02    4.3424783E+06    5.5078218E-03    4.3212071E+06
    0.20   300.000   -6.931E+01    4.3661480E+06    8.3061795E+03   -3.3406496E-02    4.3715799E+06   -6.0599300E-04    4.3449077E+06
    0.21   300.000   -7.002E+01    4.4034287E+06    7.8900482E+03   -3.7392139E-02    4.4079825E+06   -5.2318531E-03    4.3770839E+06
    0.22   300.000   -7.075E+01    4.4485696E+06    6.7660650E+03   -3.8084478E-02    4.4511103E+06   -8.2099913E-03    4.4175878E+06
    0.23   300.000   -7.149E+01    4.5073809E+06    4.1115190E+03   -3.7632352E-02    4.5078492E+06   -9.8821325E-03    4.4733403E+06
    0.24   300.000   -7.223E+01    4.5893927E+06   -2.1580414E+02   -3.8336382E-02    4.5889405E+06   -1.0839526E-02    4.5548816E+06
    0.25   300.000   -7.298E+01    4.7028474E+06   -5.5763165E+03   -4.1630834E-02    4.7036958E+06   -1.1683443E-02    4.6712718E+06
    0.26   300.000   -7.372E+01    4.8493902E+06   -1.0802672E+04   -4.7465326E-02    4.8545202E+06   -1.2867999E-02    4.8246062E+06
    0.27   300.000   -7.447E+01    5.0205457E+06   -1.4671045E+04   -5.4371131E-02    5.0331723E+06   -1.4586310E-02    5.0060705E+06
    0.28   300.000   -7.523E+01    5.1978364E+06   -1.6354231E+04   -6.0141190E-02    5.2206452E+06   -1.6669485E-02    5.1956819E+06
    0.29   300.000   -7.598E+01    5.3572910E+06   -1.5648671E+04   -6.2718795E-02    5.3916784E+06   -1.8534766E-02    5.3669848E+06
    0.30   300.000   -7.675E+01    5.4774736E+06   -1.2939263E+04   -6.0822537E-02    5.5231269E+06   -1.9294299E-02    5.4959212E+06
    0.31   300.000   -7.752E+01    5.5476088E+06   -9.0305348E+03   -5.4142884E-02    5.6025461E+06   -1.8098989E-02    5.5699502E+06
    0.32   300.000   -7.830E+01    5.5708843E+06   -4.9513989E+03   -4.3293577E-02    5.6318773E+06   -1.4588754E-02    5.5919823E+06
    0.33   300.000   -7.908E+01    5.5606350E+06   -1.6936493E+03   -2.9691323E-02    5.6239228E+06   -9.1422490E-03    5.5767033E+06
    0.34   300.000   -7.987E+01    5.5321527E+06    1.4148950E+02   -1.5310317E-02    5.5943325E+06   -2.7249609E-03    5.5420738E+06
    0.35   300.000   -8.067E+01    5.4957559E+06    5.9154935E+02   -2.2422366E-03    5.5545778E+06    3.5328694E-03    5.5015613E+06
    0.36   300.000   -8.146E+01    5.4553927E+06    2.2446854E+02    7.8137073E-03    5.5101051E+06    8.7048109E-03    5.4614830E+06
    0.37   300.000   -8.224E+01    5.4124112E+06   -2.9821143E+02    1.3942989E-02    5.4635336E+06    1.2209953E-02    5.4237829E+06
    0.38   300.000   -8.301E+01    5.3700138E+06   -6.8255687E+02    1.6200400E-02    5.4187749E+06    1.3830722E-02    5.3905695E+06
    0.39   300.000   -8.378E+01    5.3344685E+06   -1.1795797E+03    1.5548997E-02    5.3822544E+06    1.3780688E-02    5.3663958E+06
    0.40   300.000   -8.454E+01    5.3133684E+06   -2.3927429E+03    1.3556452E-02    5.3613104E+06    1.2822140E-02    5.3575368E+06
    0.41   300.000   -8.530E+01    5.3134746E+06   -4.8874381E+03    1.1962968E-02    5.3620894E+06    1.2273592E-02    5.3700315E+06
    0.42   300.000   -8.607E+01    5.3389024E+06   -8.8474852E+03    1.2271078E-02    5.3877164E+06    1.3802579E-02    5.4074116E+06
    0.43   300.000   -8.685E+01    5.3887664E+06   -1.3926095E+04    1.5435745E-02    5.4360766E+06    1.9048262E-02    5.4678325E+06
    0.44   300.000   -8.764E+01    5.4551203E+06   -1.9366392E+04    2.1686444E-02    5.4982043E+06    2.9154873E-02    5.5418887E+06
    0.45   300.000   -8.844E+01    5.5241979E+06   -2.4373576E+04    3.0489391E-02    5.5601042E+06    4.4291721E-02    5.6142531E+06
    0.46   300.000   -8.926E+01    5.5821743E+06   -2.8509181E+04    4.0654333E-02    5.6087785E+06    6.3344372E-02    5.6701181E+06
    0.47   300.000   -9.009E+01    5.6220263E+06   -3.1797535E+04    5.0638211E-02    5.6387307E+06    8.4041529E-02    5.7025578E+06
    0.48   300.000   -9.094E+01    5.6460872E+06   -3.4461671E+04    5.9024878E-02    5.6537179E+06    1.0359011E-01    5.7150773E+06
    0.49   300.000   -9.179E+01    5.6622999E+06   -3.6482053E+04    6.4912910E-02    5.6623142E+06    1.1952078E-01    5.7173112E+06
    0.50   300.000   -9.266E+01    5.6775005E+06   -3.7284305E+04    6.7912374E-02    5.6711585E+06    1.3027330E-01    5.7175396E+06
    0.51   300.000   -9.354E+01    5.6931436E+06   -3.5833673E+04    6.7839444E-02    5.6813112E+06    1.3529109E-01    5.7180401E+06
    0.52   300.000   -9.444E+01    5.7062730E+06   -3.1195416E+04    6.4513732E-02    5.6899113E+06    1.3479377E-01    5.7163701E+06
    0.53   300.000   -9.535E+01    5.7138229E+06   -2.3244762E+04    5.7860802E-02    5.6945159E+06    1.2950146E-01    5.7101582E+06
    0.54   300.000   -9.628E+01    5.7154984E+06   -1.2988996E+04    4.8128278E-02    5.6953598E+06    1.2038294E-01    5.6999642E+06
    0.55   300.000   -9.722E+01    5.7121478E+06   -2.2127113E+03    3.5971094E-02    5.6931041E+06    1.0836874E-01    5.6871630E+06
    0.56   300.000   -9.818E+01    5.7011669E+06    7.2566634E+03    2.2397781E-02    5.6842138E+06    9.4073086E-02    5.6690125E+06
    0.57   300.000   -9.915E+01    5.6736881E+06    1.4094543E+04    8.6983607E-03    5.6587081E+06    7.7724444E-02    5.6360083E+06
    0.58   300.000   -1.001E+02    5.6171073E+06    1.7637998E+04   -3.6158315E-03    5.6033085E+06    5.9453422E-02    5.5748969E+06
    0.59   300.000   -1.011E+02    5.5219661E+06    1.7888130E+04   -1.2944409E-02    5.5084968E+06    3.9760836E-02    5.4760072E+06
    0.60   300.000   -1.021E+02    5.3885591E+06    1.5502276E+04   -1.7871592E-02    5.3748518E+06    1.9732571E-02    5.3399662E+06
    0.61   300.000   -1.031E+02    5.2290989E+06    1.1649151E+04   -1.7528451E-02    5.2148829E+06    7.9572116E-04    5.1795222E+06
    0.62   300.000   -1.040E+02    5.0645031E+06    7.6507578E+03   -1.1896544E-02    5.0496924E+06   -1.5722816E-02    5.0158018E+06
    0.63   300.000   -1.050E+02    4.9174333E+06    4.5522134E+03   -1.9434455E-03    4.9020559E+06   -2.8885581E-02    4.8710864E+06
    0.64   300.000   -1.059E+02    4.8042292E+06    2.8194970E+03    1.0423031E-02    4.7884352E+06   -3.8220706E-02    4.7609113E+06
    0.65   300.000   -1.068E+02    4.7288560E+06    2.3113067E+03    2.2576364E-02    4.7129914E+06   -4.3701793E-02    4.6884168E+06
    0.66   300.000   -1.078E+02    4.6816375E+06    2.5528277E+03    3.1595055E-02    4.6663398E+06   -4.5689277E-02    4.6435063E+06
    0.67   300.000   -1.087E+02    4.6435844E+06    3.1281387E+03    3.4884264E-02    4.6298026E+06   -4.4815952E-02    4.6074197E+06
    0.68   300.000   -1.096E+02    4.5943657E+06    3.8950432E+03    3.0875958E-02    4.5832090E+06   -4.1790735E-02    4.5605589E+06
    0.69   300.000   -1.105E+02    4.5201245E+06    4.8919838E+03    1.9542825E-02    4.5125277E+06   -3.7145288E-02    4.4897756E+06
    0.70   300.000   -1.113E+02    4.4174274E+06    6.0962475E+03    2.4307377E-03    4.4137056E+06   -3.1076258E-02    4.3917649E+06
    0.71   300.000   -1.122E+02    4.2918425E+06    7.3010305E+03   -1.7856869E-02    4.2912974E+06   -2.3593680E-02    4.2714973E+06
    0.72   300.000   -1.130E+02    4.1528593E+06    8.2034909E+03   -3.8467650E-02    4.1536490E+06   -1.4970101E-02    4.1374937E+06
    0.73   300.000   -1.139E+02    4.0086256E+06    8.5610828E+03   -5.7032939E-02    4.0080519E+06   -6.1324447E-03    3.9970782E+06
    0.74   300.000   -1.147E+02    3.8631308E+06    8.2703214E+03   -7.2050552E-02    3.8583503E+06    1.4221806E-03    3.8538634E+06
    0.75   300.000   -1.155E+02    3.7164274E+06    7.3892585E+03   -8.2829693E-02    3.7053795E+06    6.2352112E-03    3.7079801E+06
    0.76   300.000   -1.162E+02    3.5668909E+06    6.1535909E+03   -8.9151557E-02    3.5490154E+06    7.6361164E-03    3.5581900E+06
    0.77   300.000   -1.170E+02    3.4138246E+06    4.9151370E+03   -9.0958161E-02    3.3901569E+06    6.1227857E-03    3.4043053E+06
    0.78   300.000   -1.177E+02    3.2589646E+06    3.9539071E+03   -8.8292544E-02    3.2315619E+06    3.0918408E-03    3.2484952E+06
    0.79   300.000   -1.183E+02    3.1063917E+06    3.3066405E+03   -8.1454503E-02    3.0774861E+06    8.2969152E-05    3.0949902E+06
    0.80   300.000   -1.190E+02    2.9612554E+06    2.8053526E+03   -7.1159667E-02    2.9326457E+06   -1.9476922E-03    2.9486895E+06
    0.81   300.000   -1.196E+02    2.8282218E+06    2.3116040E+03   -5.8526824E-02    2.8011636E+06   -2.8765926E-03    2.8137537E+06
    0.82   300.000   -1.201E+02    2.7107162E+06    1.9118664E+03   -4.4875698E-02    2.6861955E+06   -3.1558492E-03    2.6932371E+06
    0.83   300.000   -1.207E+02    2.6112735E+06    1.8653568E+03   -3.1440081E-02    2.5903161E+06   -3.3764525E-03    2.5897746E+06
    0.84   300.000   -1.212E+02    2.5318996E+06    2.3386077E+03   -1.9127547E-02    2.5156324E+06   -3.9810246E-03    2.5059456E+06
    0.85   300.000   -1.216E+02    2.4731830E+06    3.1692528E+03   -8.4047371E-03    2.4626151E+06   -5.2165731E-03    2.4431041E+06
    0.86   300.000   -1.221E+02    2.4327646E+06    3.8809739E+03    6.9150336E-04    2.4284559E+06   -7.2069148E-03    2.3995788E+06
    0.87   300.000   -1.225E+02    2.4055874E+06    3.9552272E+03    8.4577852E-03    2.4074144E+06   -9.9764737E-03    2.3708174E+06
    0.88   300.000   -1.229E+02    2.3873169E+06    3.1448393E+03    1.5379884E-02    2.3944573E+06   -1.3356870E-02    2.3527391E+06
    0.89   300.000   -1.233E+02    2.3787768E+06    1.5723220E+03    2.1970677E-02    2.3899094E+06   -1.6868237E-02    2.3460388E+06
    0.90   300.000   -1.237E+02    2.3873110E+06   -4.5912031E+02    2.8621890E-02    2.4009199E+06   -1.9739709E-02    2.3575043E+06
    0.91   300.000   -1.241E+02    2.4235067E+06   -2.7500304E+03    3.5504623E-02    2.4381541E+06   -2.1122941E-02    2.3969385E+06
    0.92   300.000   -1.245E+02    2.4958660E+06   -5.3188890E+03    4.2546818E-02    2.5103608E+06   -2.0378675E-02    2.4721514E+06
    0.93   300.000   -1.249E+02    2.6069789E+06   -8.2749622E+03    4.9480074E-02    2.6204668E+06   -1.7279630E-02    2.5853073E+06
    0.94   300.000   -1.253E+02    2.7522758E+06   -1.1594229E+04    5.5910157E-02    2.7642868E+06   -1.2069230E-02    2.7316345E+06
    0.95   300.000   -1.257E+02    2.9202716E+06   -1.4968004E+04    6.1378401E-02    2.9306996E+06   -5.4029562E-03    2.8996017E+06
    0.96   300.000   -1.262E+02    3.0937696E+06   -1.7805256E+04    6.5433532E-02    3.1027288E+06    1.7609076E-03    3.0721618E+06
    0.97   300.000   -1.266E+02    3.2530517E+06   -1.9407247E+04    6.7753005E-02    3.2605741E+06    8.2689230E-03    3.2299466E+06
    0.98   300.000   -1.270E+02    3.3813723E+06   -1.9268845E+04    6.8288951E-02    3.3869851E+06    1.2927354E-02    3.3565602E+06
    0.99   300.000   -1.275E+02    3.4701414E+06   -1.7334165E+04    6.7315095E-02    3.4725290E+06    1.4796695E-02    3.4434914E+06
    1.00   300.000   -1.280E+02    3.5199962E+06   -1.4004530E+04    6.5273960E-02    3.5170691E+06    1.3552250E-02    3.4911556E+06
    1.01   300.000   -1.284E+02    3.5370554E+06   -9.9131307E+03    6.2522113E-02    3.5265440E+06    9.6618320E-03    3.5054041E+06
    1.02   300.000   -1.289E+02    3.5278900E+06   -5.6855760E+03    5.9206095E-02    3.5081684E+06    4.2172784E-03    3.4927778E+06
    1.03   300.000   -1.294E+02    3.4971286E+06   -1.8197712E+03    5.5353663E-02    3.4678200E+06   -1.4926090E-03    3.4582323E+06
    1.04   300.000   -1.298E+02    3.4481793E+06    1.3487590E+03    5.1027594E-02    3.4103282E+06   -6.4325159E-03    3.4057671E+06
    1.05   300.000   -1.303E+02    3.3849095E+06    3.6480532E+03    4.6378755E-02    3.3407535E+06   -1.0086305E-02    3.3398038E+06
    1.06   300.000   -1.307E+02    3.3125442E+06    5.0622811E+03    4.1596908E-02    3.2649731E+06   -1.2439489E-02    3.2657230E+06
    1.07   300.000   -1.312E+02    3.2375356E+06    5.7290579E+03    3.6836521E-02    3.1893520E+06   -1.3725827E-02    3.1895790E+06
    1.08   300.000   -1.317E+02    3.1669474E+06    5.9250533E+03    3.2156814E-02    3.1201696E+06   -1.4129935E-02    3.1176787E+06
    1.09   300.000   -1.321E+02    3.1079737E+06    6.0167143E+03    2.7489689E-02    3.0634953E+06   -1.3656234E-02    3.0565001E+06
    1.10   300.000   -1.326E+02    3.0677826E+06    6.3874836E+03    2.2670778E-02    3.0255644E+06   -1.2224602E-02    3.0128527E+06
    1.11   300.000   -1.331E+02    3.0531323E+06    7.3796276E+03    1.7558933E-02    3.0128121E+06   -9.8781704E-03    2.9936027E+06
    1.12   300.000   -1.335E+02    3.0689970E+06    9.2527614E+03    1.2188240E-02    3.0305780E+06   -6.9337313E-03    3.0042967E+06
    1.13   300.000   -1.340E+02    3.1164798E+06    1.2090258E+04    6.8275717E-03    3.0807533E+06   -3.9833928E-03    3.0470628E+06
    1.14   300.000   -1.345E+02    3.1914249E+06    1.5605306E+04    1.8734193E-03    3.1599507E+06   -1.7499936E-03    3.1191657E+06
    1.15   300.000   -1.351E+02    3.2848676E+06    1.8965605E+04   -2.3584740E-03    3.2595482E+06   -8.1865884E-04    3.2132155E+06
    1.16   300.000   -1.356E+02    3.3853410E+06    2.0913089E+04   -5.7978216E-03    3.3677876E+06   -1.3199457E-03    3.3189291E+06
    1.17   300.000   -1.362E+02    3.4821656E+06    2.0337635E+04   -8.6297624E-03    3.4731464E+06   -2.7656265E-03    3.4256998E+06
    1.18   300.000   -1.368E+02    3.5681374E+06    1.7022639E+04   -1.1123321E-02    3.5674010E+06   -4.2173151E-03    3.5248659E+06
    1.19   300.000   -1.374E+02    3.6397740E+06    1.1950609E+04   -1.3371474E-02    3.6463535E+06   -4.7281139E-03    3.6102896E+06
    1.20   300.000   -1.380E+02    3.6947908E+06    6.8409841E+03   -1.5142196E-02    3.7074853E+06   -3.7956499E-03    3.6768391E+06
    1.21   300.000   -1.386E+02    3.7294388E+06    3.2398759E+03   -1.5980335E-02    3.7469597E+06   -1.5854980E-03    3.7188683E+06
    1.22   300.000   -1.393E+02    3.7391718E+06    1.7834449E+03   -1.5479816E-02    3.7598595E+06    1.1700919E-03    3.7315966E+06
    1.23   300.000   -1.400E+02    3.7226344E+06    2.0550826E+03   -1.3512519E-02    3.7442203E+06    3.5473981E-03    3.7149802E+06
    1.24   300.000   -1.407E+02    3.6848609E+06    3.0459594E+03   -1.0294126E-02    3.7046583E+06    4.9005875E-03    3.6759364E+06
    1.25   300.000   -1.414E+02    3.6358648E+06    3.8395171E+03   -6.3306103E-03    3.6512735E+06    5.1808912E-03    3.6258255E+06
    1.26   300.000   -1.421E+02    3.5852509E+06    4.0247969E+03   -2.3223674E-03    3.5943361E+06    4.9313612E-03    3.5747239E+06
    1.27   300.000   -1.429E+02    3.5372240E+06    3.6450987E+03    9.7893608E-04    3.5392798E+06    4.9531633E-03    3.5268877E+06
    1.28   300.000   -1.437E+02    3.4898068E+06    2.9137452E+03    2.9976006E-03    3.4857259E+06    5.8131679E-03    3.4804213E+06
    1.29   300.000   -1.444E+02    3.4382291E+06    2.0347669E+03    3.5992125E-03    3.4303273E+06    7.4625502E-03    3.4305757E+06
    1.30   300.000   -1.453E+02    3.3791988E+06    1.2143891E+03    3.2454392E-03    3.3703523E+06    9.1852033E-03    3.3736629E+06
    1.31   300.000   -1.462E+02    3.3128543E+06    6.9942322E+02    2.8743289E-03    3.3053525E+06    9.8872992E-03    3.3089903E+06
    1.32   300.000   -1.471E+02    3.2418853E+06    7.0317000E+02    3.4757025E-03    3.2367443E+06    8.5403267E-03    3.2384812E+06
    1.33   300.000   -1.480E+02    3.1696959E+06    1.2733056E+03    5.5756844E-03    3.1668405E+06    4.5668764E-03    3.1654097E+06
    1.34   300.000   -1.491E+02    3.0994020E+06    2.2401134E+03    8.9731912E-03    3.0984188E+06   -1.9301696E-03    3.0935011E+06
    1.35   300.000   -1.502E+02    3.0334797E+06    3.2908071E+03    1.2907060E-02    3.0342753E+06   -1.0099255E-02    3.0261483E+06
    1.36   300.000   -1.514E+02    2.9727070E+06    4.1147506E+03    1.6525750E-02    2.9756436E+06   -1.8425779E-02    2.9647949E+06
    1.37   300.000   -1.527E+02    2.9144215E+06    4.5406098E+03    1.9335022E-02    2.9199736E+06   -2.5006318E-02    2.9069253E+06
    1.38   300.000   -1.540E+02    2.8522115E+06    4.6007405E+03    2.1319756E-02    2.8604984E+06   -2.8049215E-02    2.8458584E+06
    1.39   300.000   -1.555E+02    2.7787507E+06    4.5036067E+03    2.2692150E-02    2.7892762E+06   -2.6509423E-02    2.7738503E+06
    1.40   300.000   -1.569E+02    2.6904595E+06    4.5489805E+03    2.3537279E-02    2.7021384E+06   -2.0572263E-02    2.6869598E+06
    1.41   300.000   -1.585E+02    2.5904502E+06    5.0187304E+03    2.3669957E-02    2.6018017E+06   -1.1681269E-02    2.5880701E+06
    1.42   300.000   -1.601E+02    2.4875529E+06    6.0493293E+03    2.2764254E-02    2.4969553E+06   -2.0363218E-03    2.4859183E+06
    1.43   300.000   -1.616E+02    2.3925901E+06    7.5294996E+03    2.0606302E-02    2.3986006E+06    6.2182775E-03    2.3913420E+06
    1.44   300.000   -1.632E+02    2.3146434E+06    9.1170312E+03    1.7304825E-02    2.3163514E+06    1.1730022E-02    2.3134584E+06
    1.45   300.000   -1.648E+02    2.2588869E+06    1.0401591E+04    1.3358387E-02    2.2561278E+06    1.4254910E-02    2.2573487E+06
    1.46   300.000   -1.664E+02    2.2260953E+06    1.1093102E+04    9.5516517E-03    2.2193443E+06    1.4453307E-02    2.2234699E+06
    1.47   300.000   -1.679E+02    2.2136109E+06    1.1084801E+04    6.7286211E-03    2.2035926E+06    1.3352104E-02    2.2087303E+06
    1.48   300.000   -1.694E+02    2.2174377E+06    1.0381164E+04    5.5341619E-03    2.2047109E+06    1.1800368E-02    2.2088887E+06
    1.49   300.000   -1.708E+02    2.2345644E+06    9.0149670E+03    6.2169181E-03    2.2193295E+06    1.0193111E-02    2.2211505E+06
    1.50   300.000   -1.722E+02    2.2641010E+06    7.0580297E+03    8.5818067E-03    2.2462945E+06    8.5581711E-03    2.2453539E+06
    1.51   300.000   -1.735E+02    2.3061757E+06    4.6969529E+03    1.2141083E-02    2.2857595E+06    6.8639945E-03    2.2826961E+06
    1.52   300.000   -1.747E+02    2.3591275E+06    2.2506669E+03    1.6375133E-02    2.3364380E+06    5.2388478E-03    2.3326342E+06
    1.53   300.000   -1.758E+02    2.4172592E+06    7.0158955E+01    2.0876666E-02    2.3932923E+06    3.8768718E-03    2.3902686E+06
    1.54   300.000   -1.768E+02    2.4713230E+06   -1.5955333E+03    2.5248764E-02    2.4478323E+06    2.7299616E-03    2.4464689E+06
    1.55   300.000   -1.778E+02    2.5119322E+06   -2.6689939E+03    2.8952509E-02    2.4912130E+06    1.3257888E-03    2.4911168E+06
    1.56   300.000   -1.787E+02    2.5340402E+06   -3.2594330E+03    3.1434451E-02    2.5183537E+06   -1.0691269E-03    2.5177790E+06
    1.57   300.000   -1.796E+02    2.5398818E+06   -3.6398938E+03    3.2521354E-02    2.5307047E+06   -5.0743086E-03    2.5272013E+06
    1.58   300.000   -1.804E+02    2.5385188E+06   -4.1404919E+03    3.2661272E-02    2.5359847E+06   -1.0923888E-02    2.5274817E+06
    1.59   300.000   -1.812E+02    2.5420212E+06   -4.9825827E+03    3.2693312E-02    2.5448146E+06   -1.8458724E-02    2.5305222E+06
    1.60   300.000   -1.820E+02    2.5603876E+06   -6.1626262E+03    3.3307685E-02    2.5660812E+06   -2.7277844E-02    2.5467292E+06
    1.61   300.000   -1.827E+02    2.5979243E+06   -7.4160137E+03    3.4621828E-02    2.6036095E+06   -3.6843740E-02    2.5810011E+06
    1.62   300.000   -1.835E+02    2.6523493E+06   -8.2336753E+03    3.6142855E-02    2.6554123E+06   -4.6436371E-02    2.6316614E+06
    1.63   300.000   -1.842E+02    2.7161286E+06   -7.9808752E+03    3.7083067E-02    2.7149748E+06   -5.5046077E-02    2.6918694E+06
    1.64   300.000   -1.850E+02    2.7790523E+06   -6.1706240E+03    3.6799853E-02    2.7734869E+06   -6.1418449E-02    2.7522222E+06
    1.65   300.000   -1.857E+02    2.8312293E+06   -2.7739456E+03    3.5100530E-02    2.8222788E+06   -6.4380009E-02    2.8035335E+06
    1.66   300.000   -1.864E+02    2.8657596E+06    1.6872719E+03    3.2277239E-02    2.8550658E+06   -6.3338409E-02    2.8391934E+06
    1.67   300.000   -1.871E+02    2.8804516E+06    6.3833515E+03    2.8928490E-02    2.8696836E+06   -5.8651903E-02    2.8567400E+06
    1.68   300.000   -1.879E+02    2.8781456E+06    1.0556072E+04    2.5709077E-02    2.8687389E+06   -5.1568111E-02    2.8582863E+06
    1.69   300.000   -1.886E+02    2.8655115E+06    1.3723664E+04    2.3101313E-02    2.8586156E+06   -4.3703053E-02    2.8495755E+06
    1.70   300.000   -1.893E+02    2.8508450E+06    1.5633069E+04    2.1268336E-02    2.8472329E+06   -3.6375974E-02    2.8380716E+06
    1.71   300.000   -1.900E+02    2.8418713E+06    1.6135918E+04    2.0064326E-02    2.8418058E+06   -3.0195381E-02    2.8309858E+06
    1.72   300.000   -1.906E+02    2.8442134E+06    1.5177082E+04    1.9200951E-02    2.8473951E+06   -2.5060819E-02    2.8338156E+06
    1.73   300.000   -1.913E+02    2.8605834E+06    1.2911825E+04    1.8426324E-02    2.8661876E+06   -2.0474852E-02    2.8494832E+06
    1.74   300.000   -1.920E+02    2.8908853E+06    9.8060607E+03    1.7581367E-02    2.8976270E+06   -1.5938964E-02    2.8783541E+06
    1.75   300.000   -1.927E+02    2.9336392E+06    6.5614327E+03    1.6576821E-02    2.9398770E+06   -1.1232874E-02    2.9195692E+06
    1.76   300.000   -1.933E+02    2.9881108E+06    3.8250305E+03    1.5402840E-02    2.9920316E+06   -6.4973347E-03    2.9730133E+06
    1.77   300.000   -1.940E+02    3.0550311E+06    1.8289759E+03    1.4143317E-02    3.0549083E+06   -2.1721179E-03    3.0398165E+06
    1.78   300.000   -1.947E+02    3.1345549E+06    2.5079197E+02    1.2887050E-02    3.1290499E+06    1.1350392E-03    3.1202238E+06
    1.79   300.000   -1.954E+02    3.2231860E+06   -1.5357270E+03    1.1561956E-02    3.2116659E+06    2.8457716E-03    3.2107066E+06
    1.80   300.000   -1.961E+02    3.3128821E+06   -3.9917740E+03    9.8524668E-03    3.2957044E+06    2.6548225E-03    3.3033528E+06
    1.81   300.000   -1.968E+02    3.3933413E+06   -7.0551296E+03    7.2998068E-03    3.3720042E+06    6.7796746E-04    3.3881276E+06
    1.82   300.000   -1.975E+02    3.4556044E+06   -1.0077481E+04    3.5332547E-03    3.4325981E+06   -2.6148278E-03    3.4559743E+06
    1.83   300.000   -1.982E+02    3.4947314E+06   -1.2087983E+04   -1.4987725E-03    3.4729134E+06   -6.6026195E-03    3.5009146E+06
    1.84   300.000   -1.989E+02    3.5107427E+06   -1.2314915E+04   -7.4127244E-03    3.4922745E+06   -1.0676884E-02    3.5209722E+06
    1.85   300.000   -1.996E+02    3.5083496E+06   -1.0695071E+04   -1.3426709E-02    3.4936682E+06   -1.4284528E-02    3.5186692E+06
    1.86   300.000   -2.003E+02    3.4961423E+06   -7.9780583E+03   -1.8498420E-02    3.4836767E+06   -1.6905250E-02    3.5013557E+06
    1.87   300.000   -2.010E+02    3.4849721E+06   -5.3171187E+03   -2.1483130E-02    3.4719096E+06   -1.8067509E-02    3.4803756E+06
    1.88   300.000   -2.018E+02    3.4850400E+06   -3.6923001E+03   -2.1293630E-02    3.4686257E+06   -1.7441488E-02    3.4680020E+06
    1.89   300.000   -2.025E+02    3.5025887E+06   -3.5805173E+03   -1.7137530E-02    3.4810028E+06   -1.4950300E-02    3.4730544E+06
    1.90   300.000   -2.032E+02    3.5382125E+06   -4.9428952E+03   -8.8869082E-03    3.5105539E+06   -1.0848400E-02    3.4979820E+06
    1.91   300.000   -2.040E+02    3.5881032E+06   -7.3565394E+03    2.5660119E-03    3.5538941E+06   -5.7761687E-03    3.5396398E+06
    1.92   300.000   -2.047E+02    3.6476234E+06   -1.0207329E+04    1.5283823E-02    3.6065193E+06   -7.4949763E-04    3.5932764E+06
    1.93   300.000   -2.055E+02    3.7147645E+06   -1.2938784E+04    2.6754779E-02    3.6666803E+06    3.0357514E-03    3.6566699E+06
    1.94   300.000   -2.062E+02    3.7909004E+06   -1.5229471E+04    3.4651659E-02    3.7363417E+06    4.5931734E-03    3.7312881E+06
    1.95   300.000   -2.070E+02    3.8784430E+06   -1.6969243E+04    3.7491006E-02    3.8188565E+06    3.5090424E-03    3.8200467E+06
    1.96   300.000   -2.077E+02    3.9774254E+06   -1.8141186E+04    3.4959204E-02    3.9154684E+06    1.1042471E-05    3.9238137E+06
    1.97   300.000   -2.085E+02    4.0832244E+06   -1.8798226E+04    2.7893503E-02    4.0227536E+06   -5.2938262E-03    4.0387929E+06
    1.98   300.000   -2.093E+02    4.1864246E+06   -1.9099116E+04    1.7982421E-02    4.1319949E+06   -1.1762548E-02    4.1556816E+06
    1.99   300.000   -2.101E+02    4.2750420E+06   -1.9254206E+04    7.2662050E-03    4.2309602E+06   -1.8862996E-02    4.2611294E+06
    2.00   300.000   -2.109E+02    4.3385794E+06   -1.9412723E+04   -2.4024702E-03    4.3078109E+06   -2.6094929E-02    4.3416952E+06
    2.01   300.000   -2.118E+02    4.3721865E+06   -1.9614773E+04   -9.7297800E-03    4.3555015E+06   -3.2869271E-02    4.3889802E+06
    2.02   300.000   -2.126E+02    4.3788166E+06   -1.9794530E+04   -1.4103370E-02    4.3745146E+06   -3.8508388E-02    4.4032816E+06
    2.03   300.000   -2.134E+02    4.3682766E+06   -1.9772229E+04   -1.5573308E-02    4.3726640E+06   -4.2387047E-02    4.3936915E+06
    2.04   300.000   -2.142E+02    4.3536971E+06   -1.9265339E+04   -1.4799434E-02    4.3622102E+06   -4.4141815E-02    4.3746855E+06
    2.05   300.000   -2.151E+02    4.3475741E+06   -1.7958031E+04   -1.2918512E-02    4.3561366E+06   -4.3857139E-02    4.3614617E+06
    2.06   300.000   -2.159E+02    4.3599823E+06   -1.5595790E+04   -1.1258191E-02    4.3660516E+06   -4.2127912E-02    4.3669590E+06
    2.07   300.000   -2.167E+02    4.3996570E+06   -1.2072376E+04   -1.0991787E-02    4.4025834E+06   -3.9912038E-02    4.4017211E+06
    2.08   300.000   -2.175E+02    4.4760655E+06   -7.5378099E+03   -1.2916405E-02    4.4767331E+06   -3.8195123E-02    4.4753297E+06
    2.09   300.000   -2.183E+02    4.6002410E+06   -2.5357026E+03   -1.7392219E-02    4.6002426E+06   -3.7643346E-02    4.5975727E+06
    2.10   300.000   -2.191E+02    4.7834273E+06    1.9459227E+03   -2.4325619E-02    4.7842168E+06   -3.8426449E-02    4.7781881E+06
    2.11   300.000   -2.198E+02    5.0331671E+06    4.6670851E+03   -3.3135276E-02    5.0356939E+06   -4.0219471E-02    5.0240859E+06
    2.12   300.000   -2.206E+02    5.3473045E+06    4.5753834E+03   -4.2779565E-02    5.3523850E+06   -4.2292757E-02    5.3338452E+06
    2.13   300.000   -2.215E+02    5.7091304E+06    1.2878266E+03   -5.1914104E-02    5.7182702E+06   -4.3695967E-02    5.6925640E+06
    2.14   300.000   -2.223E+02    6.0887925E+06   -4.6727600E+03   -5.9130275E-02    6.1047009E+06   -4.3588480E-02    6.0724235E+06
    2.15   300.000   -2.231E+02    6.4528647E+06   -1.2041473E+04   -6.3200043E-02    6.4790204E+06   -4.1598195E-02    6.4413405E+06
    2.16   300.000   -2.239E+02    6.7770783E+06   -1.9272676E+04   -6.3323634E-02    6.8165091E+06   -3.7942067E-02    6.7752692E+06
    2.17   300.000   -2.247E+02    7.0535492E+06   -2.5054289E+04   -5.9381621E-02    7.1077123E+06   -3.3207682E-02    7.0656163E+06
    2.18   300.000   -2.256E+02    7.2878879E+06   -2.8649860E+04   -5.2098638E-02    7.3562830E+06   -2.8036181E-02    7.3166157E+06
    2.19   300.000   -2.264E+02    7.4894587E+06   -2.9929334E+04   -4.2967724E-02    7.5698064E+06   -2.3003351E-02    7.5355410E+06
    2.20   300.000   -2.272E+02    7.6620989E+06   -2.9114731E+04   -3.3861447E-02    7.7507339E+06   -1.8653586E-02    7.7235343E+06
    2.21   300.000   -2.280E+02    7.8005644E+06   -2.6449660E+04   -2.6439787E-02    7.8930833E+06   -1.5392275E-02    7.8728936E+06
    2.22   300.000   -2.288E+02    7.8935706E+06   -2.2044184E+04   -2.1647056E-02    7.9857524E+06   -1.3171531E-02    7.9712337E+06
    2.23   300.000   -2.296E+02    7.9310630E+06   -1.5996286E+04   -1.9605214E-02    8.0197032E+06   -1.1280919E-02    8.0090981E+06
    2.24   300.000   -2.304E+02    7.9118783E+06   -8.6536875E+03   -1.9935817E-02    7.9952653E+06   -8.5465489E-03    7.9869909E+06
    2.25   300.000   -2.311E+02    7.8479745E+06   -7.7385035E+02   -2.2176811E-02    7.9262120E+06   -3.8818637E-03    7.9189363E+06
    2.26   300.000   -2.319E+02    7.7632120E+06    6.5626572E+03   -2.5936034E-02    7.8385583E+06    3.1436777E-03    7.8311152E+06
    2.27   300.000   -2.325E+02    7.6875808E+06    1.2279023E+04   -3.0785177E-02    7.7643008E+06    1.2041373E-02    7.7557542E+06
    2.28   300.000   -2.332E+02    7.6497645E+06    1.5712047E+04   -3.6173641E-02    7.7326391E+06    2.1590572E-02    7.7223909E+06
    2.29   300.000   -2.338E+02    7.6709531E+06    1.6834999E+04   -4.1526651E-02    7.7624856E+06    3.0400832E-02    7.7503294E+06
    2.30   300.000   -2.345E+02    7.7617967E+06    1.6137118E+04   -4.6423396E-02    7.8597111E+06    3.7557292E-02    7.8460313E+06
    2.31   300.000   -2.351E+02    7.9229377E+06    1.4269073E+04   -5.0677864E-02    8.0198923E+06    4.2958520E-02    8.0061294E+06
    2.32   300.000   -2.357E+02    8.1475828E+06    1.1694567E+04   -5.4281334E-02    8.2334751E+06    4.7134851E-02    8.2224932E+06
    2.33   300.000   -2.364E+02    8.4237121E+06    8.5625552E+03   -5.7288733E-02    8.4890910E+06    5.0723320E-02    8.4848400E+06
    2.34   300.000   -2.370E+02    8.7352040E+06    4.8845536E+03   -5.9725974E-02    8.7738340E+06    5.3991677E-02    8.7801553E+06
    2.35   300.000   -2.377E+02    9.0630202E+06    8.6222669E+02   -6.1535781E-02    9.0726579E+06    5.6651074E-02    9.0918396E+06
    2.36   300.000   -2.384E+02    9.3871443E+06   -2.9492981E+03   -6.2553425E-02    9.3689899E+06    5.7966412E-02    9.4008768E+06
    2.37   300.000   -2.390E+02    9.6888312E+06   -5.8310840E+03   -6.2521135E-02    9.6466781E+06    5.7112055E-02    9.6886913E+06
    2.38   300.000   -2.398E+02    9.9528726E+06   -7.3259748E+03   -6.1168889E-02    9.8924888E+06    5.3664072E-02    9.9403708E+06
    2.39   300.000   -2.405E+02    1.0170037E+07   -7.5794000E+03   -5.8353146E-02    1.0098629E+07    4.7955961E-02    1.0147530E+07
    2.40   300.000   -2.412E+02    1.0339042E+07   -7.3307591E+03   -5.4172652E-02    1.0264497E+07    4.0993391E-02    1.0310060E+07
    2.41   300.000   -2.420E+02    1.0465807E+07   -7.5421026E+03   -4.8994392E-02    1.0395631E+07    3.3909642E-02    1.0434776E+07
    2.42   300.000   -2.427E+02    1.0558002E+07   -8.8755355E+03   -4.3422648E-02    1.0498126E+07    2.7338191E-02    1.0529240E+07
    2.43   300.000   -2.435E+02    1.0616723E+07   -1.1274687E+04   -3.8248615E-02    1.0570466E+07    2.1186315E-02    1.0592999E+07
    2.44   300.000   -2.442E+02    1.0631004E+07   -1.3839243E+04   -3.4325941E-02    1.0598432E+07    1.4966137E-02    1.0612350E+07
    2.45   300.000   -2.450E+02    1.0579845E+07   -1.5092428E+04   -3.2340369E-02    1.0557686E+07    8.3748302E-03    1.0563397E+07
    2.46   300.000   -2.457E+02    1.0441440E+07   -1.3582075E+04   -3.2599803E-02    1.0423789E+07    1.6452152E-03    1.0422678E+07
    2.47   300.000   -2.464E+02    1.0205943E+07   -8.5426521E+03   -3.5013877E-02    1.0185820E+07   -4.5637378E-03    1.0180810E+07
    2.48   300.000   -2.472E+02    9.8868768E+06   -2.5941556E+02   -3.9220418E-02    9.8579881E+06   -9.5514889E-03    9.8533149E+06
    2.49   300.000   -2.479E+02    9.5245034E+06    1.0016452E+04   -4.4626066E-02    9.4823748E+06   -1.2853155E-02    9.4822858E+06
    2.50   300.000   -2.485E+02    9.1759653E+06    2.0432239E+04   -5.0286867E-02    9.1182852E+06   -1.4219450E-02    9.1252332E+06
    2.51   300.000   -2.492E+02    8.8951974E+06    2.9002543E+04   -5.4860024E-02    8.8217148E+06   -1.3454399E-02    8.8351641E+06
    2.52   300.000   -2.499E+02    8.7138760E+06    3.4214704E+04   -5.6855505E-02    8.6261398E+06   -1.0386150E-02    8.6428584E+06
    2.53   300.000   -2.506E+02    8.6341472E+06    3.5649851E+04   -5.5098937E-02    8.5353133E+06   -5.0540608E-03    8.5511008E+06
    2.54   300.000   -2.512E+02    8.6354016E+06    3.4134574E+04   -4.9076412E-02    8.5302522E+06    2.0807627E-03    8.5421022E+06
    2.55   300.000   -2.519E+02    8.6889061E+06    3.1158019E+04   -3.8932380E-02    8.5837080E+06    1.0160898E-02    8.5912023E+06
    2.56   300.000   -2.526E+02    8.7712715E+06    2.8005029E+04   -2.5228033E-02    8.6727958E+06    1.8235273E-02    8.6781451E+06
    2.57   300.000   -2.532E+02    8.8704427E+06    2.5296353E+04   -8.7654287E-03    8.7841319E+06    2.5623792E-02    8.7910134E+06
    2.58   300.000   -2.539E+02    8.9832318E+06    2.3150994E+04    9.3789772E-03    8.9115160E+06    3.2091276E-02    8.9232424E+06
    2.59   300.000   -2.545E+02    9.1083950E+06    2.1672876E+04    2.7747876E-02    9.0503439E+06    3.7725887E-02    9.0680791E+06
    2.60   300.000   -2.552E+02    9.2413292E+06    2.1313315E+04    4.4533392E-02    9.1938447E+06    4.2595603E-02    9.2157259E+06
    2.61   300.000   -2.558E+02    9.3744119E+06    2.2816066E+04    5.7847731E-02    9.3338549E+06    4.6413167E-02    9.3556977E+06
    2.62   300.000   -2.565E+02    9.5022061E+06    2.6812553E+04    6.6187924E-02    9.4651748E+06    4.8479130E-02    9.4825873E+06
    2.63   300.000   -2.571E+02    9.6266770E+06    3.3423529E+04    6.8877593E-02    9.5899611E+06    4.7956312E-02    9.6005290E+06
    2.64   300.000   -2.577E+02    9.7574684E+06    4.2137720E+04    6.6207606E-02    9.7182427E+06    4.4224073E-02    9.7222576E+06
    2.65   300.000   -2.583E+02    9.9063959E+06    5.1907610E+04    5.9184010E-02    9.8631517E+06    3.7037288E-02    9.8626024E+06
    2.66   300.000   -2.589E+02    1.0080193E+07    6.1280365E+04    4.9072359E-02    1.0033748E+07    2.6502673E-02    1.0030670E+07
    2.67   300.000   -2.595E+02    1.0276729E+07    6.8609061E+04    3.7039847E-02    1.0230356E+07    1.3100928E-02    1.0225828E+07
    2.68   300.000   -2.601E+02    1.0486070E+07    7.2508492E+04    2.4066535E-02    1.0444392E+07   -2.1635565E-03    1.0438610E+07
    2.69   300.000   -2.607E+02    1.0693638E+07    7.2390812E+04    1.1041493E-02    1.0660750E+07   -1.7718147E-02    1.0653593E+07
    2.70   300.000   -2.613E+02    1.0883431E+07    6.8607228E+04   -1.2014329E-03    1.0861184E+07   -3.1747655E-02    1.0852377E+07
    2.71   300.000   -2.618E+02    1.1041374E+07    6.2076080E+04   -1.2037768E-02    1.1028723E+07   -4.2802949E-02    1.1017452E+07
    2.72   300.000   -2.623E+02    1.1157874E+07    5.3904443E+04   -2.1248249E-02    1.1151675E+07   -5.0262628E-02    1.1136470E+07
    2.73   300.000   -2.629E+02    1.1227461E+07    4.5315659E+04   -2.9031531E-02    1.1224341E+07   -5.4297700E-02    1.1203769E+07
    2.74   300.000   -2.634E+02    1.1245202E+07    3.7454527E+04   -3.5820513E-02    1.1243483E+07   -5.5433196E-02    1.1217032E+07
    2.75   300.000   -2.639E+02    1.1202076E+07    3.0837413E+04   -4.2046329E-02    1.1202602E+07   -5.4114200E-02    1.1170767E+07
    2.76   300.000   -2.643E+02    1.1083039E+07    2.5060900E+04   -4.7918812E-02    1.1088334E+07   -5.0558980E-02    1.1051819E+07
    2.77   300.000   -2.648E+02    1.0871515E+07    1.9248936E+04   -5.3247763E-02    1.0883812E+07   -4.4890925E-02    1.0842557E+07
    2.78   300.000   -2.653E+02    1.0559966E+07    1.2842862E+04   -5.7435379E-02    1.0579620E+07   -3.7415164E-02    1.0532207E+07
    2.79   300.000   -2.657E+02    1.0159813E+07    6.1131710E+03   -5.9732391E-02    1.0185239E+07   -2.8876640E-02    1.0128764E+07
    2.80   300.000   -2.661E+02    9.7027576E+06    1.5213728E+02   -5.9573184E-02    9.7314381E+06   -2.0500292E-02    9.6618670E+06
    2.81   300.000   -2.665E+02    9.2319607E+06   -3.6505380E+03   -5.6683558E-02    9.2611888E+06   -1.3695939E-02    9.1742299E+06
    2.82   300.000   -2.669E+02    8.7889652E+06   -4.4246500E+03   -5.0954536E-02    8.8158937E+06   -9.5512716E-03    8.7082646E+06
    2.83   300.000   -2.673E+02    8.4040849E+06   -2.3395775E+03   -4.2402729E-02    8.4257561E+06   -8.4166890E-03    8.2964147E+06
    2.84   300.000   -2.677E+02    8.0937145E+06    1.6408347E+03   -3.1378739E-02    8.1075731E+06   -9.8203354E-03    7.9583108E+06
    2.85   300.000   -2.681E+02    7.8626056E+06    6.4764697E+03   -1.8782501E-02    7.8671929E+06   -1.2736342E-02    7.7018685E+06
    2.86   300.000   -2.684E+02    7.7070223E+06    1.1576323E+04   -6.0020957E-03    7.7023294E+06   -1.6049683E-02    7.5244564E+06
    2.87   300.000   -2.688E+02    7.6167216E+06    1.6932878E+04    5.4136557E-03    7.6040457E+06   -1.8971686E-02    7.4137954E+06
    2.88   300.000   -2.692E+02    7.5772192E+06    2.3045020E+04    1.4146020E-02    7.5586297E+06   -2.1195732E-02    7.3514216E+06
    2.89   300.000   -2.695E+02    7.5739658E+06    3.0626596E+04    1.9381952E-02    7.5514545E+06   -2.2769369E-02    7.3194939E+06
    2.90   300.000   -2.699E+02    7.5958718E+06    4.0054846E+04    2.0892493E-02    7.5703247E+06   -2.3848575E-02    7.3063435E+06
    2.91   300.000   -2.702E+02    7.6337524E+06    5.0788908E+04    1.8943045E-02    7.6042158E+06   -2.4514258E-02    7.3054978E+06
    2.92   300.000   -2.706E+02    7.6745827E+06    6.1024521E+04    1.4158822E-02    7.6383920E+06   -2.4716837E-02    7.3094928E+06
    2.93   300.000   -2.710E+02    7.6983504E+06    6.7745204E+04    7.4557201E-03    7.6522078E+06   -2.4331563E-02    7.3053578E+06
    2.94   300.000   -2.713E+02    7.6821131E+06    6.7477148E+04    2.7988484E-05    7.6235635E+06   -2.3283814E-02    7.2760809E+06
    2.95   300.000   -2.717E+02    7.6086398E+06    5.7975214E+04   -6.7250898E-03    7.5372373E+06   -2.1669673E-02    7.2062478E+06
    2.96   300.000   -2.721E+02    7.4735903E+06    4.0119825E+04   -1.1464748E-02    7.3914038E+06   -1.9767369E-02    7.0879667E+06
    2.97   300.000   -2.725E+02    7.2867664E+06    1.8289788E+04   -1.3374259E-02    7.1982188E+06   -1.7902519E-02    6.9239205E+06
    2.98   300.000   -2.728E+02    7.0661930E+06   -1.7488914E+03   -1.2579066E-02    6.9772888E+06   -1.6270366E-02    6.7250588E+06
    2.99   300.000   -2.732E+02    6.8288632E+06   -1.5855875E+04   -1.0170859E-02    6.7459189E+06   -1.4855088E-02    6.5043793E+06
    3.00   300.000   -2.736E+02    6.5865526E+06   -2.2745713E+04   -7.7244187E-03    6.5148073E+06   -1.3468972E-02    6.2738802E+06
    3.01   300.000   -2.740E+02    6.3512984E+06   -2.2950362E+04   -6.6052374E-03    6.2939329E+06   -1.1843515E-02    6.0491321E+06
    3.02   300.000   -2.744E+02    6.1440460E+06   -1.7437058E+04   -7.4881768E-03    6.1018844E+06   -9.7222377E-03    5.8554062E+06
    3.03   300.000   -2.748E+02    5.9956226E+06   -7.3121369E+03   -1.0258785E-02    5.9673485E+06   -6.9181075E-03    5.7258010E+06
    3.04   300.000   -2.752E+02    5.9378710E+06    5.8158512E+03   -1.4197255E-02    5.9203774E+06   -3.3094731E-03    5.6909550E+06
    3.05   300.000   -2.755E+02    5.9925441E+06    1.9774462E+04   -1.8292472E-02    5.9812284E+06    1.1620152E-03    5.7687356E+06
    3.06   300.000   -2.759E+02    6.1649243E+06    3.2288107E+04   -2.1591992E-02    6.1541264E+06    6.3879258E-03    5.9601770E+06
    3.07   300.000   -2.763E+02    6.4420088E+06    4.1598887E+04   -2.3505693E-02    6.4260022E+06    1.1927796E-02    6.2500801E+06
    3.08   300.000   -2.766E+02    6.7917241E+06    4.6909925E+04   -2.3965721E-02    6.7663745E+06    1.6991697E-02    6.6074046E+06
    3.09   300.000   -2.770E+02    7.1631082E+06    4.8504979E+04   -2.3379356E-02    7.1275808E+06    2.0710625E-02    6.9847824E+06
    3.10   300.000   -2.774E+02    7.4922646E+06    4.7485462E+04   -2.2394816E-02    7.4496810E+06    2.2568802E-02    7.3224470E+06
    3.11   300.000   -2.777E+02    7.7177339E+06    4.5194947E+04   -2.1582471E-02    7.6740831E+06    2.2695043E-02    7.5614305E+06
    3.12   300.000   -2.781E+02    7.8001050E+06    4.2593796E+04   -2.1172051E-02    7.7617681E+06    2.1804190E-02    7.6620321E+06
    3.13   300.000   -2.785E+02    7.7337109E+06    3.9833986E+04   -2.0962427E-02    7.7048613E+06    2.0838320E-02    7.6159775E+06
    3.14   300.000   -2.788E+02    7.5438711E+06    3.6107546E+04   -2.0447143E-02    7.5250686E+06    2.0546599E-02    7.4452720E+06
    3.15   300.000   -2.792E+02    7.2749567E+06    2.9889105E+04   -1.9101178E-02    7.2633637E+06    2.1243217E-02    7.1917690E+06
    3.16   300.000   -2.795E+02    6.9775938E+06    1.9816505E+04   -1.6674758E-02    6.9682170E+06    2.2827974E-02    6.9048609E+06
    3.17   300.000   -2.799E+02    6.6987073E+06    5.9991963E+03   -1.3310761E-02    6.6858359E+06    2.4959267E-02    6.6311167E+06
    3.18   300.000   -2.802E+02    6.4757830E+06   -9.2881217E+03   -9.4143774E-03    6.4542135E+06    2.7196112E-02    6.4078909E+06
    3.19   300.000   -2.806E+02    6.3357661E+06   -2.2454324E+04   -5.3758545E-03    6.3017301E+06    2.9048131E-02    6.2618449E+06
    3.20   300.000   -2.809E+02    6.2961905E+06   -3.0477756E+04   -1.3361090E-03    6.2479492E+06    3.0034308E-02    6.2102865E+06
    3.21   300.000   -2.812E+02    6.3657644E+06   -3.2300193E+04    2.8381779E-03    6.3038406E+06    2.9839787E-02    6.2625546E+06
    3.22   300.000   -2.815E+02    6.5447535E+06   -2.8848959E+04    7.3168636E-03    6.4717837E+06    2.8487199E-02    6.4212261E+06
    3.23   300.000   -2.819E+02    6.8266900E+06   -2.2063643E+04    1.1936045E-02    6.7468096E+06    2.6330122E-02    6.6838755E+06
    3.24   300.000   -2.822E+02    7.2009375E+06   -1.3821886E+04    1.5963794E-02    7.1186117E+06    2.3802882E-02    7.0446554E+06
    3.25   300.000   -2.826E+02    7.6546488E+06   -5.3880170E+03    1.8221301E-02    7.5732190E+06    2.1114548E-02    7.4945956E+06
    3.26   300.000   -2.830E+02    8.1743810E+06    2.5309114E+03    1.7566561E-02    8.0950724E+06    1.8152210E-02    8.0214879E+06
    3.27   300.000   -2.834E+02    8.7486148E+06    9.4384469E+03    1.3523672E-02    8.6705914E+06    1.4644773E-02    8.6115066E+06
    3.28   300.000   -2.838E+02    9.3699957E+06    1.4822322E+04    6.7044514E-03    9.2912478E+06    1.0397218E-02    9.2523098E+06
    3.29   300.000   -2.842E+02    1.0033888E+07    1.8248953E+04   -1.2811211E-03    9.9523244E+06    5.4153994E-03    9.9339097E+06
    3.30   300.000   -2.847E+02    1.0731909E+07    1.9611315E+04   -8.4098627E-03    1.0646479E+07   -8.7890856E-05    1.0644268E+07
    3.31   300.000   -2.852E+02    1.1443131E+07    1.9169231E+04   -1.2948825E-02    1.1355090E+07   -5.7410991E-03    1.1361044E+07
    3.32   300.000   -2.857E+02    1.2127513E+07    1.7235524E+04   -1.3886424E-02    1.2041158E+07   -1.1112939E-02    1.2044469E+07
    3.33   300.000   -2.862E+02    1.2725512E+07    1.3771575E+04   -1.1010072E-02    1.2647171E+07   -1.5884502E-02    1.2636572E+07
    3.34   300.000   -2.868E+02    1.3165741E+07    8.3235599E+03   -4.7978640E-03    1.3101216E+07   -2.0018172E-02    1.3069384E+07
    3.35   300.000   -2.873E+02    1.3378989E+07    4.8490707E+02    3.7234324E-03    1.3331442E+07   -2.3774508E-02    1.3279756E+07
    3.36   300.000   -2.879E+02    1.3313818E+07   -9.3799145E+03    1.3156042E-02    1.3283563E+07   -2.7546927E-02    1.3223844E+07
    3.37   300.000   -2.885E+02    1.2949686E+07   -1.9714857E+04    2.2013091E-02    1.2935294E+07   -3.1661608E-02    1.2886020E+07
    3.38   300.000   -2.890E+02    1.2305764E+07   -2.8121190E+04    2.9072433E-02    1.2305118E+07   -3.6273540E-02    1.2283081E+07
    3.39   300.000   -2.895E+02    1.1442537E+07   -3.2405729E+04    3.3647593E-02    1.1453192E+07   -4.1340006E-02    1.1465779E+07
    3.40   300.000   -2.900E+02    1.0452238E+07   -3.1612242E+04    3.5649523E-02    1.0471211E+07   -4.6619484E-02    1.0514805E+07
    3.41   300.000   -2.905E+02    9.4393363E+06   -2.6299481E+04    3.5466456E-02    9.4627884E+06   -5.1718083E-02    9.5276173E+06
    3.42   300.000   -2.909E+02    8.4988331E+06   -1.8079279E+04    3.3791719E-02    8.5221218E+06   -5.6209390E-02    8.5986329E+06
    3.43   300.000   -2.914E+02    7.6999968E+06   -8.9850658E+03    3.1477903E-02    7.7184430E+06   -5.9763034E-02    7.8004458E+06
    3.44   300.000   -2.918E+02    7.0780753E+06   -1.0180386E+03    2.9387795E-02    7.0884015E+06   -6.2156070E-02    7.1723025E+06
    3.45   300.000   -2.922E+02    6.6329685E+06    4.1947774E+03    2.8205266E-02    6.6347325E+06   -6.3130701E-02    6.7172569E+06
    3.46   300.000   -2.926E+02    6.3344316E+06    5.7035030E+03    2.8253952E-02    6.3304074E+06   -6.2254422E-02    6.4074436E+06
    3.47   300.000   -2.930E+02    6.1345810E+06    3.3746544E+03    2.9421831E-02    6.1295090E+06   -5.8995872E-02    6.1970814E+06
    3.48   300.000   -2.934E+02    5.9856309E+06   -2.2082814E+03    3.1259427E-02    5.9838850E+06   -5.3034335E-02    6.0402495E+06
    3.49   300.000   -2.938E+02    5.8556445E+06   -9.9126849E+03    3.3229487E-02    5.8591073E+06   -4.4574900E-02    5.9060966E+06
    3.50   300.000   -2.943E+02    5.7345215E+06   -1.8159597E+04    3.4975892E-02    5.7417572E+06   -3.4410938E-02    5.7842463E+06
    3.51   300.000   -2.947E+02    5.6286724E+06   -2.5189775E+04    3.6457149E-02    5.6357168E+06   -2.3677498E-02    5.6794122E+06
    3.52   300.000   -2.952E+02    5.5499922E+06   -2.9717630E+04    3.7904227E-02    5.5522894E+06   -1.3462123E-02    5.6009532E+06
    3.53   300.000   -2.957E+02    5.5063866E+06   -3.1551228E+04    3.9673108E-02    5.5008346E+06   -4.5007807E-03    5.5543957E+06
    3.54   300.000   -2.962E+02    5.4973697E+06   -3.1466109E+04    4.2069993E-02    5.4833301E+06    2.9116470E-03    5.5381234E+06
    3.55   300.000   -2.967E+02    5.5145321E+06   -3.0417486E+04    4.5215603E-02    5.4931841E+06    8.8094219E-03    5.5445714E+06
    3.56   300.000   -2.973E+02    5.5459938E+06   -2.8940493E+04    4.9021200E-02    5.5184295E+06    1.3351898E-02    5.5644063E+06
    3.57   300.000   -2.978E+02    5.5833474E+06   -2.7203721E+04    5.3296496E-02    5.5488317E+06    1.6665267E-02    5.5920682E+06
    3.58   300.000   -2.984E+02    5.6269667E+06   -2.5402946E+04    5.7890809E-02    5.5829647E+06    1.8819665E-02    5.6295297E+06
    3.59   300.000   -2.990E+02    5.6851779E+06   -2.3988515E+04    6.2707546E-02    5.6294486E+06    1.9912966E-02    5.6850275E+06
    3.60   300.000   -2.995E+02    5.7680464E+06   -2.3485573E+04    6.7542124E-02    5.7011843E+06    2.0144586E-02    5.7675485E+06
    3.61   300.000   -3.001E+02    5.8820024E+06   -2.4058562E+04    7.1893892E-02    5.8082720E+06    1.9798640E-02    5.8821350E+06
    3.62   300.000   -3.007E+02    6.0300208E+06   -2.5278648E+04    7.4978416E-02    5.9557518E+06    1.9163329E-02    6.0299795E+06
    3.63   300.000   -3.014E+02    6.2153727E+06   -2.6412038E+04    7.6008842E-02    6.1460137E+06    1.8468188E-02    6.2118998E+06
    3.64   300.000   -3.020E+02    6.4432453E+06   -2.6947688E+04    7.4553238E-02    6.3808390E+06    1.7880486E-02    6.4303635E+06
    3.65   300.000   -3.026E+02    6.7176561E+06   -2.6766097E+04    7.0695460E-02    6.6599906E+06    1.7537972E-02    6.6874795E+06
    3.66   300.000   -3.032E+02    7.0364446E+06   -2.5858801E+04    6.4934394E-02    6.9781996E+06    1.7578631E-02    6.9810545E+06
    3.67   300.000   -3.039E+02    7.3879233E+06   -2.4118559E+04    5.7974307E-02    7.3232391E+06    1.8146096E-02    7.3017051E+06
    3.68   300.000   -3.045E+02    7.7496279E+06   -2.1516167E+04    5.0531743E-02    7.6749196E+06    1.9359235E-02    7.6313079E+06
    3.69   300.000   -3.051E+02    8.0891054E+06   -1.8368990E+04    4.3164885E-02    8.0047966E+06    2.1237722E-02    7.9429186E+06
    3.70   300.000   -3.057E+02    8.3691571E+06   -1.5301366E+04    3.6149391E-02    8.2794713E+06    2.3610940E-02    8.2049627E+06
    3.71   300.000   -3.064E+02    8.5584157E+06   -1.2894752E+04    2.9486531E-02    8.4694460E+06    2.6083915E-02    8.3906932E+06
    3.72   300.000   -3.070E+02    8.6419353E+06   -1.1327399E+04    2.3061375E-02    8.5593117E+06    2.8111766E-02    8.4873043E+06
    3.73   300.000   -3.076E+02    8.6249741E+06   -1.0254412E+04    1.6849389E-02    8.5525398E+06    2.9172136E-02    8.4979742E+06
    3.74   300.000   -3.082E+02    8.5293787E+06   -8.9580125E+03    1.1049224E-02    8.4692692E+06    2.8999013E-02    8.4373815E+06
    3.75   300.000   -3.087E+02    8.3861580E+06   -6.6739163E+03    6.0727246E-03    8.3395651E+06    2.7791719E-02    8.3258477E+06
    3.76   300.000   -3.092E+02    8.2261572E+06   -3.0336152E+03    2.3946220E-03    8.1937866E+06    2.6240016E-02    8.1843880E+06
    3.77   300.000   -3.098E+02    8.0717175E+06    1.4760341E+03    3.5372455E-04    8.0535399E+06    2.5291475E-02    8.0313234E+06
    3.78   300.000   -3.103E+02    7.9352521E+06    5.3685450E+03    3.1327877E-05    7.9299368E+06    2.5806724E-02    7.8826069E+06
    3.79   300.000   -3.107E+02    7.8253367E+06    6.7507110E+03    1.2692660E-03    7.8300664E+06    2.8308230E-02    7.7548309E+06
    3.80   300.000   -3.112E+02    7.7517701E+06    4.5789236E+03    3.8079730E-03    7.7628015E+06    3.2870303E-02    7.6649902E+06
    3.81   300.000   -3.116E+02    7.7228062E+06   -3.1789978E+02    7.4638814E-03    7.7365241E+06    3.9095080E-02    7.6244006E+06
    3.82   300.000   -3.121E+02    7.7383271E+06   -5.5019905E+03    1.2223399E-02    7.7521764E+06    4.6195704E-02    7.6320889E+06
    3.83   300.000   -3.125E+02    7.7875364E+06   -8.5133813E+03    1.8153630E-02    7.8003982E+06    5.3253561E-02    7.6746537E+06
    3.84   300.000   -3.129E+02    7.8549013E+06   -8.4919067E+03    2.5147672E-02    7.8669237E+06    5.9570383E-02    7.7342590E+06
    3.85   300.000   -3.133E+02    7.9301638E+06   -6.4181198E+03    3.2681783E-02    7.9422508E+06    6.4858534E-02    7.7997593E+06
    3.86   300.000   -3.137E+02    8.0131841E+06   -3.9313840E+03    3.9804056E-02    8.0262456E+06    6.9075152E-02    7.8719608E+06
    3.87   300.000   -3.141E+02    8.1076930E+06   -1.9744157E+03    4.5395701E-02    8.1217439E+06    7.2040090E-02    7.9574884E+06
    3.88   300.000   -3.144E+02    8.2091524E+06   -3.6920190E+02    4.8532259E-02    8.2225994E+06    7.3248707E-02    8.0562210E+06
    3.89   300.000   -3.148E+02    8.2983861E+06    1.5935159E+03    4.8758565E-02    8.3080562E+06    7.2125582E-02    8.1531473E+06
    3.90   300.000   -3.152E+02    8.3468529E+06    4.2272444E+03    4.6214362E-02    8.3490441E+06    6.8498525E-02    8.2206154E+06
    3.91   300.000   -3.156E+02    8.3298422E+06    6.9873391E+03    4.1621630E-02    8.3219964E+06    6.2838996E-02    8.2296914E+06
    3.92   300.000   -3.159E+02    8.2394351E+06    8.8363204E+03    3.6121660E-02    8.2214911E+06    5.6049245E-02    8.1650721E+06
    3.93   300.000   -3.163E+02    8.0898493E+06    9.0457712E+03    3.0936828E-02    8.0644459E+06    4.8979985E-02    8.0348494E+06
    3.94   300.000   -3.166E+02    7.9123003E+06    7.6584109E+03    2.6951902E-02    7.8837221E+06    4.2044176E-02    7.8680021E+06
    3.95   300.000   -3.170E+02    7.7426294E+06    5.2567446E+03    2.4434839E-02    7.7151660E+06    3.5147745E-02    7.7012207E+06
    3.96   300.000   -3.173E+02    7.6086016E+06    2.3829102E+03    2.3022335E-02    7.5852852E+06    2.7883083E-02    7.5642129E+06
    3.97   300.000   -3.176E+02    7.5231678E+06   -7.9893448E+02    2.1903642E-02    7.5055339E+06    1.9804218E-02    7.4720437E+06
    3.98   300.000   -3.180E+02    7.4864040E+06   -4.3319184E+03    2.0108378E-02    7.4751952E+06    1.0687786E-02    7.4271636E+06
    3.99   300.000   -3.183E+02    7.4940603E+06   -8.0736371E+03    1.6859510E-02    7.4901146E+06    7.7454702E-04    7.4279056E+06
    4.00   300.000   -3.186E+02    7.5462929E+06   -1.1567363E+04    1.1895327E-02    7.5507732E+06   -9.0830376E-03    7.4765419E+06
    4.01   300.000   -3.189E+02    7.6491352E+06   -1.4280391E+04    5.6110218E-03    7.6628344E+06   -1.7550563E-02    7.5799508E+06
    4.02   300.000   -3.192E+02    7.8065869E+06   -1.5908652E+04   -1.0263509E-03    7.8287968E+06   -2.3316934E-02    7.7415692E+06
    4.03   300.000   -3.195E+02    8.0097941E+06   -1.6526400E+04   -6.7348303E-03    8.0376139E+06   -2.5758008E-02    7.9514449E+06
    4.04   300.000   -3.198E+02    8.2329706E+06   -1.6616893E+04   -1.0316718E-02    8.2617153E+06   -2.5283479E-02    8.1835356E+06
    4.05   300.000   -3.200E+02    8.4399898E+06   -1.7015005E+04   -1.1149694E-02    8.4645793E+06   -2.3066683E-02    8.4030499E+06
    4.06   300.000   -3.203E+02    8.5970700E+06   -1.8685038E+04   -9.5541666E-03    8.6134418E+06   -2.0387706E-02    8.5783207E+06
    4.07   300.000   -3.206E+02    8.6837641E+06   -2.2362420E+04   -6.7431103E-03    8.6893285E+06   -1.8130197E-02    8.6896435E+06
    4.08   300.000   -3.208E+02    8.6981349E+06   -2.8246805E+04   -4.2972522E-03    8.6912028E+06   -1.6728516E-02    8.7324188E+06
    4.09   300.000   -3.211E+02    8.6563517E+06   -3.5883344E+04   -3.4809877E-03    8.6352724E+06   -1.6394614E-02    8.7165584E+06
    4.10   300.000   -3.213E+02    8.5870159E+06   -4.4258409E+04   -4.8249624E-03    8.5497009E+06   -1.7276778E-02    8.6631695E+06
    4.11   300.000   -3.215E+02    8.5202472E+06   -5.2110097E+04   -8.1506851E-03    8.4642694E+06   -1.9411044E-02    8.5974063E+06
    4.12   300.000   -3.218E+02    8.4750181E+06   -5.8348083E+04   -1.2885781E-02    8.3982273E+06   -2.2596258E-02    8.5385128E+06
    4.13   300.000   -3.220E+02    8.4507932E+06   -6.2329693E+04   -1.8390355E-02    8.3523687E+06   -2.6369357E-02    8.4912764E+06
    4.14   300.000   -3.222E+02    8.4271160E+06   -6.3838528E+04   -2.4094186E-02    8.3088507E+06   -3.0113614E-02    8.4428211E+06
    4.15   300.000   -3.224E+02    8.3710017E+06   -6.2890457E+04   -2.9414865E-02    8.2383554E+06   -3.3194685E-02    8.3666213E+06
    4.16   300.000   -3.226E+02    8.2497029E+06   -5.9584996E+04   -3.3599113E-02    8.1120044E+06   -3.5008538E-02    8.2333754E+06
    4.17   300.000   -3.228E+02    8.0438581E+06   -5.4076897E+04   -3.5715082E-02    7.9131339E+06   -3.4942702E-02    8.0243926E+06
    4.18   300.000   -3.229E+02    7.7542260E+06   -4.6637876E+04   -3.4947121E-02    7.6426061E+06   -3.2396850E-02    7.7397585E+06
    4.19   300.000   -3.231E+02    7.3988417E+06   -3.7759918E+04   -3.1107069E-02    7.3153552E+06   -2.6996117E-02    7.3966068E+06
    4.20   300.000   -3.234E+02    7.0045752E+06   -2.8135352E+04   -2.5016932E-02    6.9528457E+06   -1.8906649E-02    7.0206748E+06
    4.21   300.000   -3.236E+02    6.5995768E+06   -1.8383580E+04   -1.8397406E-02    6.5775912E+06   -8.9916843E-03    6.6381398E+06
    4.22   300.000   -3.238E+02    6.2095058E+06   -8.8104304E+03   -1.3218038E-02    6.2113455E+06    1.3423314E-03    6.2716885E+06
    4.23   300.000   -3.240E+02    5.8562993E+06    4.6170503E+02   -1.0864244E-02    5.8746522E+06    1.0538860E-02    5.9400036E+06
    4.24   300.000   -3.242E+02    5.5569173E+06    9.2810960E+03   -1.1609099E-02    5.5851062E+06    1.7369520E-02    5.6576871E+06
    4.25   300.000   -3.244E+02    5.3211902E+06    1.7581887E+04   -1.4669567E-02    5.3541193E+06    2.1340686E-02    5.4339334E+06
    4.26   300.000   -3.246E+02    5.1502670E+06    2.5522801E+04   -1.8747463E-02    5.1844332E+06    2.2843370E-02    5.2708127E+06
    4.27   300.000   -3.248E+02    5.0366522E+06    3.3167180E+04   -2.2667542E-02    5.0697485E+06    2.2920641E-02    5.1622755E+06
    4.28   300.000   -3.251E+02    4.9651177E+06    3.9999516E+04   -2.5749356E-02    4.9957435E+06    2.2753269E-02    5.0939798E+06
    4.29   300.000   -3.253E+02    4.9153321E+06    4.4994942E+04   -2.7839089E-02    4.9430572E+06    2.3163895E-02    5.0455392E+06
    4.30   300.000   -3.256E+02    4.8688420E+06    4.7308018E+04   -2.9163422E-02    4.8944938E+06    2.4396310E-02    4.9979389E+06
    4.31   300.000   -3.258E+02    4.8188792E+06    4.6877439E+04   -3.0152512E-02    4.8445488E+06    2.6213313E-02    4.9440118E+06
    4.32   300.000   -3.261E+02    4.7752558E+06    4.4368939E+04   -3.1256465E-02    4.8034723E+06    2.8190262E-02    4.8934299E+06
    4.33   300.000   -3.264E+02    4.7583934E+06    4.0615229E+04   -3.2756466E-02    4.7905971E+06    3.0030635E-02    4.8661019E+06
    4.34   300.000   -3.267E+02    4.7859621E+06    3.6158887E+04   -3.4634679E-02    4.8213122E+06    3.1742138E-02    4.8782951E+06
    4.35   300.000   -3.270E+02    4.8617919E+06    3.1277299E+04   -3.6573685E-02    4.8972060E+06    3.3586403E-02    4.9320880E+06
    4.36   300.000   -3.274E+02    4.9740290E+06    2.6302477E+04   -3.8078667E-02    5.0051804E+06    3.5874640E-02    5.0149904E+06
    4.37   300.000   -3.277E+02    5.1019841E+06    2.1727244E+04   -3.8654611E-02    5.1243921E+06    3.8796508E-02    5.1080160E+06
    4.38   300.000   -3.280E+02    5.2251722E+06    1.7848720E+04   -3.7986527E-02    5.2351645E+06    4.2369743E-02    5.1948017E+06
    4.39   300.000   -3.283E+02    5.3283893E+06    1.4346689E+04   -3.6099025E-02    5.3242359E+06    4.6407976E-02    5.2656468E+06
    4.40   300.000   -3.287E+02    5.4022663E+06    1.0468237E+04   -3.3422739E-02    5.3850880E+06    5.0428193E-02    5.3161735E+06
    4.41   300.000   -3.290E+02    5.4425511E+06    5.8584262E+03   -3.0648015E-02    5.4158864E+06    5.3639644E-02    5.3442965E+06
    4.42   300.000   -3.293E+02    5.4501887E+06    1.1969137E+03   -2.8380435E-02    5.4180571E+06    5.5211457E-02    5.3490995E+06
    4.43   300.000   -3.296E+02    5.4316447E+06   -2.1014293E+03   -2.6833903E-02    5.3966306E+06    5.4744441E-02    5.3325479E+06
    4.44   300.000   -3.299E+02    5.3976327E+06   -2.7659696E+03   -2.5785102E-02    5.3604520E+06    5.2577644E-02    5.3011880E+06
    4.45   300.000   -3.302E+02    5.3592760E+06   -1.9216535E+02   -2.4752635E-02    5.3195742E+06    4.9631554E-02    5.2642498E+06
    4.46   300.000   -3.306E+02    5.3233572E+06    5.6391559E+03   -2.3193431E-02    5.2806141E+06    4.6885757E-02    5.2288350E+06
    4.47   300.000   -3.309E+02    5.2898939E+06    1.4362114E+04   -2.0600037E-02    5.2439342E+06    4.4886639E-02    5.1964941E+06
    4.48   300.000   -3.312E+02    5.2542921E+06    2.5249467E+04   -1.6557437E-02    5.2054805E+06    4.3608647E-02    5.1644245E+06
    4.49   300.000   -3.315E+02    5.2133721E+06    3.7213581E+04   -1.0861454E-02    5.1624671E+06    4.2668779E-02    5.1306815E+06
    4.50   300.000   -3.318E+02    5.1706925E+06    4.8971735E+04   -3.6853368E-03    5.1183442E+06    4.1629645E-02    5.0988851E+06
    4.51   300.000   -3.321E+02    5.1362304E+06    5.9337207E+04    4.3426588E-03    5.0825350E+06    4.0136116E-02    5.0778311E+06
    4.52   300.000   -3.324E+02    5.1211761E+06    6.7467820E+04    1.2251172E-02    5.0658206E+06    3.7849180E-02    5.0768681E+06
    4.53   300.000   -3.327E+02    5.1334044E+06    7.2927407E+04    1.8976449E-02    5.0763975E+06    3.4342748E-02    5.1021925E+06
    4.54   300.000   -3.330E+02    5.1767099E+06    7.5516678E+04    2.3627034E-02    5.1191255E+06    2.9155325E-02    5.1566102E+06
    4.55   300.000   -3.333E+02    5.2520148E+06    7.5012543E+04    2.5672813E-02    5.1962399E+06    2.2020546E-02    5.2407575E+06
    4.56   300.000   -3.336E+02    5.3581653E+06    7.1104652E+04    2.5015230E-02    5.3076018E+06    1.3095386E-02    5.3535891E+06
    4.57   300.000   -3.339E+02    5.4925895E+06    6.3701145E+04    2.1936319E-02    5.4509559E+06    2.9878411E-03    5.4927176E+06
    4.58   300.000   -3.342E+02    5.6535833E+06    5.3408703E+04    1.6979304E-02    5.6238931E+06   -7.4282100E-03    5.6565173E+06
    4.59   300.000   -3.345E+02    5.8442750E+06    4.1701148E+04    1.0825855E-02    5.8276796E+06   -1.7257823E-02    5.8480113E+06
    4.60   300.000   -3.348E+02    6.0752522E+06    3.0418876E+04    4.1688041E-03    6.0702425E+06   -2.5759516E-02    6.0775136E+06
    4.61   300.000   -3.351E+02    6.3629300E+06    2.0807827E+04   -2.4654002E-03    6.3653638E+06   -3.2459550E-02    6.3610951E+06
    4.62   300.000   -3.354E+02    6.7250202E+06    1.2851577E+04   -8.9034295E-03    6.7289868E+06   -3.7270293E-02    6.7161579E+06
    4.63   300.000   -3.357E+02    7.1778499E+06    5.5419476E+03   -1.5355652E-02    7.1769247E+06   -4.0580255E-02    7.1588268E+06
    4.64   300.000   -3.360E+02    7.7379288E+06   -2.0937546E+03   -2.2177953E-02    7.7262692E+06   -4.3192490E-02    7.7056330E+06
    4.65   300.000   -3.364E+02    8.4240318E+06   -1.0103084E+04   -2.9480336E-02    8.3969978E+06   -4.6039413E-02    8.3758322E+06
    4.66   300.000   -3.367E+02    9.2535202E+06   -1.7535222E+04   -3.6848135E-02    9.2078455E+06   -4.9763174E-02    9.1880444E+06
    4.67   300.000   -3.371E+02    1.0231722E+07   -2.3042232E+04   -4.3357661E-02    1.0165648E+07   -5.4394548E-02    1.0149918E+07
    4.68   300.000   -3.375E+02    1.1340550E+07   -2.5589660E+04   -4.7855313E-02    1.1254624E+07   -5.9341443E-02    1.1246769E+07
    4.69   300.000   -3.379E+02    1.2533709E+07   -2.4926380E+04   -4.9327860E-02    1.2432561E+07   -6.3687359E-02    1.2436265E+07
    4.70   300.000   -3.383E+02    1.3739558E+07   -2.1699273E+04   -4.7207966E-02    1.3633589E+07   -6.6591830E-02    1.3650134E+07
    4.71   300.000   -3.387E+02    1.4866548E+07   -1.7152743E+04   -4.1546124E-02    1.4771393E+07   -6.7569222E-02    1.4798326E+07
    4.72   300.000   -3.392E+02    1.5809950E+07   -1.2523657E+04   -3.3029158E-02    1.5742528E+07   -6.6570636E-02    1.5775048E+07
    4.73   300.000   -3.397E+02    1.6468648E+07   -8.4490317E+03   -2.2839954E-02    1.6441452E+07   -6.3917482E-02    1.6475866E+07
    4.74   300.000   -3.401E+02    1.6778648E+07   -4.7342449E+03   -1.2372786E-02    1.6795723E+07   -6.0127400E-02    1.6832407E+07
    4.75   300.000   -3.406E+02    1.6748857E+07   -7.2649394E+02   -2.8785391E-03    1.6805717E+07   -5.5672650E-02    1.6849830E+07
    4.76   300.000   -3.411E+02    1.6469323E+07    3.8199076E+03    4.7976254E-03    1.6556210E+07   -5.0828358E-02    1.6616623E+07
    4.77   300.000   -3.415E+02    1.6077731E+07    8.0619331E+03    1.0260943E-02    1.6184070E+07   -4.5782373E-02    1.6271526E+07
    4.78   300.000   -3.420E+02    1.5703613E+07    1.0263479E+04    1.3474180E-02    1.5821548E+07   -4.0921018E-02    1.5946186E+07
    4.79   300.000   -3.424E+02    1.5424937E+07    8.7623959E+03    1.4718987E-02    1.5550367E+07   -3.6968216E-02    1.5718642E+07
    4.80   300.000   -3.429E+02    1.5256542E+07    2.9568988E+03    1.4638784E-02    1.5387362E+07   -3.4778405E-02    1.5599239E+07
    4.81   300.000   -3.433E+02    1.5165289E+07   -6.2799767E+03    1.4165615E-02    1.5298046E+07   -3.4924061E-02    1.5545904E+07
    4.82   300.000   -3.437E+02    1.5094414E+07   -1.6889074E+04    1.4202254E-02    1.5221428E+07   -3.7386152E-02    1.5491618E+07
    4.83   300.000   -3.442E+02    1.4983024E+07   -2.6420874E+04    1.5257842E-02    1.5092105E+07   -4.1504800E-02    1.5368792E+07
    4.84   300.000   -3.446E+02    1.4778032E+07   -3.2946434E+04    1.7356618E-02    1.4855937E+07   -4.6095994E-02    1.5125548E+07
    4.85   300.000   -3.450E+02    1.4444076E+07   -3.5730680E+04    2.0245011E-02    1.4482194E+07   -4.9606373E-02    1.4736319E+07
    4.86   300.000   -3.454E+02    1.3974886E+07   -3.5433072E+04    2.3616033E-02    1.3973148E+07   -5.0362954E-02    1.4208724E+07
    4.87   300.000   -3.458E+02    1.3400590E+07   -3.3623117E+04    2.7148245E-02    1.3366855E+07   -4.7033072E-02    1.3584327E+07
    4.88   300.000   -3.462E+02    1.2781808E+07   -3.1733167E+04    3.0433941E-02    1.2727864E+07   -3.9182377E-02    1.2929136E+07
    4.89   300.000   -3.465E+02    1.2188924E+07   -3.0184405E+04    3.2948157E-02    1.2126281E+07   -2.7616574E-02    1.2313533E+07
    4.90   300.000   -3.469E+02    1.1675777E+07   -2.8438850E+04    3.4086079E-02    1.1613129E+07   -1.4302477E-02    1.1788257E+07
    4.91   300.000   -3.472E+02    1.1261449E+07   -2.5876764E+04    3.3257393E-02    1.1203841E+07   -1.8910673E-03    1.1368031E+07
    4.92   300.000   -3.476E+02    1.0930497E+07   -2.2566153E+04    3.0081527E-02    1.0879661E+07    7.0592760E-03    1.1033260E+07
    4.93   300.000   -3.479E+02    1.0652200E+07   -1.9131723E+04    2.4637416E-02    1.0607702E+07    1.0992060E-02    1.0750543E+07
    4.94   300.000   -3.482E+02    1.0407044E+07   -1.5963986E+04    1.7556592E-02    1.0367824E+07    1.0010563E-02    1.0499562E+07
    4.95   300.000   -3.486E+02    1.0203288E+07   -1.2768044E+04    9.8301145E-03    1.0168993E+07    5.8615527E-03    1.0288932E+07
    4.96   300.000   -3.489E+02    1.0074415E+07   -8.9525161E+03    2.4770418E-03    1.0045984E+07    1.2225394E-03    1.0152721E+07
    4.97   300.000   -3.492E+02    1.0061851E+07   -4.2903830E+03   -3.7067698E-03    1.0041229E+07   -1.3066969E-03    1.0132865E+07
    4.98   300.000   -3.496E+02    1.0193523E+07    8.8950771E+02   -8.3012145E-03    1.0182681E+07   -8.1105729E-05    1.0257673E+07
    4.99   300.000   -3.499E+02    1.0466767E+07    5.9510295E+03   -1.1379410E-02    1.0466248E+07    5.1208551E-03    1.0524298E+07
    5.00   300.000   -3.503E+02    1.0841330E+07    1.0089738E+04   -1.3482418E-02    1.0848766E+07    1.3182216E-02    1.0891383E+07
# T(K) = 400.00   Npoints =    1001   V(cm^3) =  1.139E-20
   -5.00   400.000    3.625E+02    3.3590248E+06    2.1523042E+03    4.8340869E-03    3.3511693E+06    5.1687646E-03    3.3834503E+06
   -4.99   400.000    3.615E+02    3.3524753E+06    1.4798696E+03    2.6618221E-03    3.3421125E+06    5.6976887E-03    3.3762606E+06
   -4.98   400.000    3.606E+02    3.3339575E+06    9.5859066E+02    6.8868876E-04    3.3207900E+06    6.2044391E-03    3.3570847E+06
   -4.97   400.000    3.596E+02    3.3078278E+06    6.6553386E+02   -9.5087878E-04    3.2916351E+06    6.6259147E-03    3.3305609E+06
   -4.96   400.000    3.587E+02    3.2791754E+06    6.4282049E+02   -2.1490947E-03    3.2598768E+06    6.9033839E-03    3.3018881E+06
   -4.95   400.000    3.578E+02    3.2529545E+06    8.7205912E+02   -2.8221293E-03    3.2306858E+06    6.9839226E-03    3.2760567E+06
   -4.94   400.000    3.569E+02    3.2333307E+06    1.2715605E+03   -2.9159833E-03    3.2085070E+06    6.8175206E-03    3.2572768E+06
   -4.93   400.000    3.560E+02    3.2234028E+06    1.7148284E+03   -2.4203903E-03    3.1967315E+06    6.3553055E-03    3.2487259E+06
   -4.92   400.000    3.551E+02    3.2251881E+06    2.0613731E+03   -1.3847621E-03    3.1976110E+06    5.5516782E-03    3.2525017E+06
   -4.91   400.000    3.543E+02    3.2396098E+06    2.1909256E+03    7.2546664E-05    3.2121849E+06    4.3690679E-03    3.2695447E+06
   -4.90   400.000    3.535E+02    3.2663005E+06    2.0333843E+03    1.7691464E-03    3.2400587E+06    2.7826234E-03    3.2993759E+06
   -4.89   400.000    3.526E+02    3.3032725E+06    1.5863789E+03    3.4804599E-03    3.2790898E+06    7.8496227E-04    3.3397285E+06
   -4.88   400.000    3.518E+02    3.3467255E+06    9.1354627E+02    4.9754960E-03    3.3252353E+06   -1.6051634E-03    3.3863649E+06
   -4.87   400.000    3.510E+02    3.3912912E+06    1.2279256E+02    6.0591128E-03    3.3728455E+06   -4.3267984E-03    3.4333977E+06
   -4.86   400.000    3.502E+02    3.4308373E+06   -6.6738154E+02    6.6107240E-03    3.4155087E+06   -7.2558064E-03    3.4742243E+06
   -4.85   400.000    3.494E+02    3.4596533E+06   -1.3601326E+03    6.6084104E-03    3.4472711E+06   -1.0189269E-02    3.5028579E+06
   -4.84   400.000    3.486E+02    3.4736119E+06   -1.8998624E+03    6.1290166E-03    3.4638223E+06   -1.2849161E-02    3.5151792E+06
   -4.83   400.000    3.479E+02    3.4708616E+06   -2.2755368E+03    5.3205845E-03    3.4632041E+06   -1.4914736E-02    3.5096225E+06
   -4.82   400.000    3.471E+02    3.4518228E+06   -2.5116343E+03    4.3531980E-03    3.4458142E+06   -1.6081248E-02    3.4870814E+06
   -4.81   400.000    3.463E+02    3.4186124E+06   -2.6535654E+03    3.3646841E-03    3.4138188E+06   -1.6129052E-02    3.4502075E+06
   -4.80   400.000    3.455E+02    3.3742514E+06   -2.7527856E+03    2.4224573E-03    3.3703333E+06   -1.4979551E-02    3.4025113E+06
   -4.79   400.000    3.448E+02    3.3219910E+06   -2.8539920E+03    1.5166085E-03    3.3187120E+06   -1.2718218E-02    3.3476191E+06
   -4.78   400.000    3.440E+02    3.2648794E+06   -2.9857885E+03    5.8347685E-04    3.2620844E+06   -9.5785096E-03    3.2888001E+06
   -4.77   400.000    3.433E+02    3.2055018E+06   -3.1569728E+03   -4.5648151E-04    3.2030822E+06   -5.8960311E-03    3.2286842E+06
   -4.76   400.000    3.425E+02    3.1457805E+06   -3.3604602E+03   -1.6666470E-03    3.1436407E+06   -2.0507865E-03    3.1690534E+06
   -4.75   400.000    3.418E+02    3.0867992E+06   -3.5837999E+03   -3.0791889E-03    3.0848305E+06    1.5866484E-03    3.1106887E+06
   -4.74   400.000    3.411E+02    3.0287162E+06   -3.8206952E+03   -4.6953923E-03    3.0267805E+06    4.6974284E-03    3.0533460E+06
   -4.73   400.000    3.403E+02    2.9708676E+06   -4.0759663E+03   -6.4927791E-03    2.9687952E+06    7.0449852E-03    2.9959523E+06
   -4.72   400.000    3.396E+02    2.9121019E+06   -4.3597850E+03   -8.4316283E-03    2.9097101E+06    8.4960481E-03    2.9370377E+06
   -4.71   400.000    3.389E+02    2.8512728E+06   -4.6741864E+03   -1.0458566E-02    2.8484060E+06    9.0324877E-03    2.8752982E+06
   -4.70   400.000    3.381E+02    2.7877063E+06   -5.0007328E+03   -1.2508416E-02    2.7842821E+06    8.7508674E-03    2.8100875E+06
   -4.69   400.000    3.374E+02    2.7214246E+06   -5.2981589E+03   -1.4505177E-02    2.7174592E+06    7.8448423E-03    2.7416101E+06
   -4.68   400.000    3.367E+02    2.6530073E+06   -5.5126270E+03   -1.6361044E-02    2.6486060E+06    6.5685166E-03    2.6707136E+06
   -4.67   400.000    3.359E+02    2.5831841E+06   -5.5954756E+03   -1.7973139E-02    2.5785011E+06    5.1864346E-03    2.5983983E+06
   -4.66   400.000    3.352E+02    2.5124211E+06   -5.5193195E+03   -1.9222380E-02    2.5076127E+06    3.9232736E-03    2.5253459E+06
   -4.65   400.000    3.345E+02    2.4407609E+06   -5.2846291E+03   -1.9982728E-02    2.4359559E+06    2.9277467E-03    2.4517402E+06
   -4.64   400.000    3.338E+02    2.3679676E+06   -4.9137868E+03   -2.0145769E-02    2.3632659E+06    2.2592433E-03    2.3774251E+06
   -4.63   400.000    3.331E+02    2.2937957E+06   -4.4357905E+03   -1.9655010E-02    2.2892850E+06    1.8961665E-03    2.3021869E+06
   -4.62   400.000    3.324E+02    2.2181319E+06   -3.8699383E+03   -1.8534743E-02    2.2139046E+06    1.7575854E-03    2.2258944E+06
   -4.61   400.000    3.317E+02    2.1409146E+06   -3.2183627E+03   -1.6898590E-02    2.1370708E+06    1.7285339E-03    2.1484075E+06
   -4.60   400.000    3.311E+02    2.0619448E+06   -2.4732430E+03   -1.4932829E-02    2.0585784E+06    1.6833639E-03    2.0693904E+06
   -4.59   400.000    3.304E+02    1.9807693E+06   -1.6356104E+03   -1.2861349E-02    1.9779479E+06    1.5065632E-03    1.9882282E+06
   -4.58   400.000    3.298E+02    1.8967275E+06   -7.3371730E+02   -1.0905100E-02    1.8944729E+06    1.1120290E-03    1.9041241E+06
   -4.57   400.000    3.292E+02    1.8091256E+06    1.7274768E+02   -9.2477400E-03    1.8074063E+06    4.5937069E-04    1.8163168E+06
   -4.56   400.000    3.286E+02    1.7174648E+06    1.0073896E+03   -8.0138462E-03    1.7162006E+06   -4.3701169E-04    1.7243176E+06
   -4.55   400.000    3.281E+02    1.6216568E+06    1.7021256E+03   -7.2601482E-03    1.6207351E+06   -1.5093877E-03    1.6281020E+06
   -4.54   400.000    3.276E+02    1.5221755E+06    2.2173809E+03   -6.9765792E-03    1.5214721E+06   -2.6475981E-03    1.5282215E+06
   -4.53   400.000    3.271E+02    1.4200838E+06    2.5478418E+03   -7.0936883E-03    1.4194815E+06   -3.7153286E-03    1.4257967E+06
   -4.52   400.000    3.266E+02    1.3169119E+06    2.7148574E+03   -7.4952846E-03    1.3163142E+06   -4.5691653E-03    1.3223830E+06
   -4.51   400.000    3.262E+02    1.2144335E+06    2.7529768E+03   -8.0374169E-03    1.2137729E+06   -5.0804836E-03    1.2197494E+06
   -4.50   400.000    3.257E+02    1.1144230E+06    2.6976634E+03   -8.5738203E-03    1.1136660E+06   -5.1590668E-03    1.1196513E+06
   -4.49   400.000    3.253E+02    1.0184522E+06    2.5776323E+03   -8.9833920E-03    1.0175995E+06   -4.7729836E-03    1.0236406E+06
   -4.48   400.000    3.249E+02    9.2772613E+05    2.4122611E+03   -9.1909203E-03    9.2680691E+05   -3.9571695E-03    9.3290807E+05
   -4.47   400.000    3.246E+02    8.4295744E+05    2.2129991E+03   -9.1731943E-03    8.4201739E+05   -2.8066171E-03    8.4815430E+05
   -4.46   400.000    3.242E+02    7.6432547E+05    1.9869718E+03   -8.9494702E-03    7.6341179E+05   -1.4564041E-03    7.6954000E+05
   -4.45   400.000    3.239E+02    6.9158065E+05    1.7406377E+03   -8.5630017E-03    6.9072900E+05   -5.5041915E-05    6.9678479E+05
   -4.44   400.000    3.236E+02    6.2428678E+05    1.4817422E+03   -8.0630516E-03    6.2351384E+05    1.2618929E-03    6.2941145E+05
   -4.43   400.000    3.233E+02    5.6209636E+05    1.2191144E+03   -7.4935555E-03    5.6139893E+05    2.3922180E-03    5.6703033E+05
   -4.42   400.000    3.230E+02    5.0492458E+05    9.6132458E+02   -6.8893735E-03    5.0428397E+05    3.2775608E-03    5.0952469E+05
   -4.41   400.000    3.227E+02    4.5295863E+05    7.1568382E+02   -6.2778279E-03    4.5234816E+05    3.9019775E-03    4.5706965E+05
   -4.40   400.000    3.225E+02    4.0654743E+05    4.8826736E+02   -5.6826377E-03    4.0594106E+05    4.2810336E-03    4.1002740E+05
   -4.39   400.000    3.222E+02    3.6607349E+05    2.8450442E+02   -5.1277471E-03    3.6545403E+05    4.4472666E-03    3.6881969E+05
   -4.38   400.000    3.220E+02    3.3187764E+05    1.0949071E+02   -4.6388585E-03    3.3124289E+05    4.4383489E-03    3.3384834E+05
   -4.37   400.000    3.217E+02    3.0423651E+05   -3.2320864E+01   -4.2413007E-03    3.0360221E+05    4.2910341E-03    3.0546398E+05
   -4.36   400.000    3.215E+02    2.8335165E+05   -1.3771756E+02   -3.9547814E-03    2.8275011E+05    4.0398699E-03    2.8394239E+05
   -4.35   400.000    3.212E+02    2.6931984E+05   -2.0508441E+02   -3.7876082E-03    2.6879414E+05    3.7176232E-03    2.6944012E+05
   -4.34   400.000    3.210E+02    2.6208686E+05   -2.3430604E+02   -3.7334574E-03    2.6168099E+05    3.3550393E-03    2.6193487E+05
   -4.33   400.000    3.207E+02    2.6140271E+05   -2.2638444E+02   -3.7723864E-03    2.6114981E+05    2.9794309E-03    2.6117326E+05
   -4.32   400.000    3.205E+02    2.6679289E+05   -1.8307688E+02   -3.8757068E-03    2.6670448E+05    2.6128722E-03    2.6664284E+05
   -4.31   400.000    3.202E+02    2.7755146E+05   -1.0675271E+02   -4.0128931E-03    2.7761160E+05    2.2708850E-03    2.7757423E+05
   -4.30   400.000    3.199E+02    2.9275996E+05   -5.1381524E-01   -4.1582833E-03    2.9292737E+05    1.9620640E-03    2.9297440E+05
   -4.29   400.000    3.196E+02    3.1133573E+05    1.3146671E+02   -4.2954943E-03    3.1155525E+05    1.6888153E-03    3.1169099E+05
   -4.28   400.000    3.192E+02    3.3210742E+05    2.8346386E+02   -4.4178317E-03    3.3232929E+05    1.4493094E-03    3.3250190E+05
   -4.27   400.000    3.188E+02    3.5390188E+05    4.4768832E+02   -4.5239192E-03    3.5410338E+05    1.2404588E-03    3.5421180E+05
   -4.26   400.000    3.184E+02    3.7561626E+05    6.1397137E+02   -4.6098216E-03    3.7581748E+05    1.0610557E-03    3.7572786E+05
   -4.25   400.000    3.179E+02    3.9625607E+05    7.7008865E+02   -4.6612634E-03    3.9652154E+05    9.1363752E-04    3.9609442E+05
   -4.24   400.000    3.173E+02    4.1494292E+05    9.0328567E+02   -4.6502960E-03    4.1536622E+05    8.0392162E-04    4.1449099E+05
   -4.23   400.000    3.167E+02    4.3091739E+05    1.0032328E+03   -4.5390337E-03    4.3159368E+05    7.3791867E-04    4.3022044E+05
   -4.22   400.000    3.160E+02    4.4356019E+05    1.0656477E+03   -4.2897884E-03    4.4455794E+05    7.1837234E-04    4.4271400E+05
   -4.21   400.000    3.151E+02    4.5243178E+05    1.0946677E+03   -3.8777467E-03    4.5377516E+05    7.4287767E-04    4.5155857E+05
   -4.20   400.000    3.142E+02    4.5731254E+05    1.1019232E+03   -3.3007814E-03    4.5897961E+05    8.0521519E-04    4.5653291E+05
   -4.19   400.000    3.131E+02    4.5822800E+05    1.1019572E+03   -2.5820886E-03    4.6016143E+05    8.9934567E-04    4.5763848E+05
   -4.18   400.000    3.118E+02    4.5545560E+05    1.1061895E+03   -1.7646736E-03    4.5757745E+05    1.0234171E-03    4.5511689E+05
   -4.17   400.000    3.104E+02    4.4950876E+05    1.1187943E+03   -9.0023424E-04    4.5173224E+05    1.1807401E-03    4.4944402E+05
   -4.16   400.000    3.088E+02    4.4108519E+05    1.1364686E+03   -3.6770375E-05    4.4332106E+05    1.3766763E-03    4.4128417E+05
   -4.15   400.000    3.070E+02    4.3096901E+05    1.1514313E+03    7.9093468E-04    4.3312865E+05    1.6133328E-03    4.3139541E+05
   -4.14   400.000    3.049E+02    4.1990078E+05    1.1554001E+03    1.5651352E-03    4.2189971E+05    1.8853619E-03    4.2050208E+05
   -4.13   400.000    3.027E+02    4.0845582E+05    1.1425866E+03    2.2824258E-03    4.1021983E+05    2.1790472E-03    4.0917522E+05
   -4.12   400.000    3.002E+02    3.9697511E+05    1.1109930E+03    2.9461040E-03    3.9844830E+05    2.4745624E-03    3.9776281E+05
   -4.11   400.000    2.975E+02    3.8556881E+05    1.0622377E+03    3.5570649E-03    3.8672065E+05    2.7497051E-03    3.8638836E+05
   -4.10   400.000    2.947E+02    3.7418046E+05    1.0004486E+03    4.1070612E-03    3.7500838E+05    2.9832691E-03    3.7500779E+05
   -4.09   400.000    2.916E+02    3.6268223E+05    9.3079094E+02    4.5769227E-03    3.6320827E+05    3.1571046E-03    3.6349866E+05
   -4.08   400.000    2.883E+02    3.5097373E+05    8.5820061E+02    4.9402411E-03    3.5123651E+05    3.2570194E-03    3.5175752E+05
   -4.07   400.000    2.849E+02    3.3906921E+05    7.8679371E+02    5.1708985E-03    3.3911425E+05    3.2732675E-03    3.3979004E+05
   -4.06   400.000    2.813E+02    3.2716383E+05    7.2006800E+02    5.2513197E-03    3.2703517E+05    3.2012475E-03    3.2778160E+05
   -4.05   400.000    2.776E+02    3.1566592E+05    6.6150768E+02    5.1781057E-03    3.1540052E+05    3.0424891E-03    3.1613197E+05
   -4.04   400.000    2.738E+02    3.0517669E+05    6.1490728E+02    4.9630364E-03    3.0480120E+05    2.8055371E-03    3.0543398E+05
   -4.03   400.000    2.698E+02    2.9640684E+05    5.8394168E+02    4.6296775E-03    2.9593547E+05    2.5062376E-03    2.9638677E+05
   -4.02   400.000    2.658E+02    2.9004302E+05    5.7109122E+02    4.2077199E-03    2.8947565E+05    2.1671731E-03    2.8965981E+05
   -4.01   400.000    2.618E+02    2.8660357E+05    5.7646839E+02    3.7277399E-03    2.8592446E+05    1.8162614E-03    2.8575027E+05
   -4.00   400.000    2.577E+02    2.8633206E+05    5.9706113E+02    3.2182161E-03    2.8551065E+05    1.4845072E-03    2.8488324E+05
   -3.99   400.000    2.537E+02    2.8916218E+05    6.2658269E+02    2.7050715E-03    2.8815750E+05    1.2027277E-03    2.8698643E+05
   -3.98   400.000    2.496E+02    2.9475820E+05    6.5586045E+02    2.2126249E-03    2.9352674E+05    9.9722267E-04    2.9173941E+05
   -3.97   400.000    2.456E+02    3.0260828E+05    6.7365518E+02    1.7642684E-03    3.0111283E+05    8.8502761E-04    2.9867024E+05
   -3.96   400.000    2.416E+02    3.1213452E+05    6.6788767E+02    1.3815347E-03    3.1035029E+05    8.7006194E-04    3.0726027E+05
   -3.95   400.000    2.375E+02    3.2278638E+05    6.2725406E+02    1.0812093E-03    3.2070148E+05    9.4149116E-04    3.1702465E+05
   -3.94   400.000    2.334E+02    3.3409948E+05    5.4298546E+02    8.7135388E-04    3.3170982E+05    1.0749404E-03    3.2755484E+05
   -3.93   400.000    2.293E+02    3.4572077E+05    4.1017145E+02    7.4808845E-04    3.4302252E+05    1.2364234E-03    3.3853062E+05
   -3.92   400.000    2.251E+02    3.5741361E+05    2.2801128E+02    6.9523476E-04    3.5439719E+05    1.3884009E-03    3.4971980E+05
   -3.91   400.000    2.208E+02    3.6905566E+05   -1.1839009E+00    6.8817131E-04    3.6570462E+05    1.4970522E-03    3.6097974E+05
   -3.90   400.000    2.164E+02    3.8063374E+05   -2.7375873E+02    7.0156600E-04    3.7692955E+05    1.5393182E-03    3.7226265E+05
   -3.89   400.000    2.120E+02    3.9223439E+05   -5.8646615E+02    7.1853802E-04    3.8816584E+05    1.5077248E-03    3.8361920E+05
   -3.88   400.000    2.075E+02    4.0403215E+05   -9.3753739E+02    7.3722703E-04    3.9960633E+05    1.4111098E-03    3.9519822E+05
   -3.87   400.000    2.030E+02    4.1628580E+05   -1.3265794E+03    7.7093198E-04    4.1153677E+05    1.2705862E-03    4.0724936E+05
   -3.86   400.000    1.985E+02    4.2935250E+05   -1.7529938E+03    8.4059523E-04    4.2434467E+05    1.1120313E-03    4.2013781E+05
   -3.85   400.000    1.940E+02    4.4371732E+05   -2.2131580E+03    9.6257390E-04    4.3854218E+05    9.5793628E-04    4.3436946E+05
   -3.84   400.000    1.896E+02    4.6001509E+05   -2.6974515E+03    1.1378595E-03    4.5478227E+05    8.2144513E-04    4.5060591E+05
   -3.83   400.000    1.852E+02    4.7900738E+05   -3.1886014E+03    1.3486505E-03    4.7383191E+05    7.0382770E-04    4.6963418E+05
   -3.82   400.000    1.810E+02    5.0148336E+05   -3.6622200E+03    1.5641572E-03    4.9647170E+05    5.9485616E-04    4.9226183E+05
   -3.81   400.000    1.768E+02    5.2808752E+05   -4.0892776E+03    1.7522787E-03    5.2332415E+05    4.7509403E-04    5.1914097E+05
   -3.80   400.000    1.728E+02    5.5912676E+05   -4.4394983E+03    1.8908401E-03    5.5466331E+05    3.1985841E-04    5.5057387E+05
   -3.79   400.000    1.689E+02    5.9444623E+05   -4.6847387E+03    1.9731926E-03    5.9029492E+05    1.0506849E-04    5.8638920E+05
   -3.78   400.000    1.652E+02    6.3345280E+05   -4.8020217E+03    2.0070343E-03    6.2958665E+05   -1.8558315E-04    6.2596731E+05
   -3.77   400.000    1.617E+02    6.7529858E+05   -4.7763468E+03    2.0093426E-03    6.7165958E+05   -5.5396058E-04    6.6842633E+05
   -3.76   400.000    1.583E+02    7.1914357E+05   -4.6031244E+03    2.0017063E-03    7.1565788E+05   -9.8359861E-04    7.1288752E+05
   -3.75   400.000    1.552E+02    7.6435462E+05   -4.2892712E+03    2.0085845E-03    7.6095073E+05   -1.4402549E-03    7.5867769E+05
   -3.74   400.000    1.523E+02    8.1051627E+05   -3.8517365E+03    2.0578479E-03    8.0714010E+05   -1.8774210E-03    8.0534441E+05
   -3.73   400.000    1.497E+02    8.5722859E+05   -3.3134190E+03    2.1808339E-03    8.5385074E+05   -2.2459090E-03    8.5245950E+05
   -3.72   400.000    1.472E+02    9.0379636E+05   -2.6984081E+03    2.4092662E-03    9.0040970E+05   -2.5047958E-03    8.9931392E+05
   -3.71   400.000    1.450E+02    9.4900169E+05   -2.0292507E+03    2.7682058E-03    9.4561172E+05   -2.6294787E-03    9.4469469E+05
   -3.70   400.000    1.430E+02    9.9114838E+05   -1.3274577E+03    3.2665116E-03    9.8776069E+05   -2.6131511E-03    9.8692944E+05
   -3.69   400.000    1.412E+02    1.0284593E+06   -6.1599190E+02    3.8882177E-03    1.0250684E+06   -2.4613792E-03    1.0242776E+06
   -3.68   400.000    1.395E+02    1.0597304E+06    7.8789515E+01    4.5891392E-03    1.0563128E+06   -2.1836305E-03    1.0555715E+06
   -3.67   400.000    1.380E+02    1.0849760E+06    7.2739640E+02    5.3020534E-03    1.0814909E+06   -1.7871932E-03    1.0808486E+06
   -3.66   400.000    1.367E+02    1.1057529E+06    1.2993540E+03    5.9504707E-03    1.1021522E+06   -1.2765780E-03    1.1016675E+06
   -3.65   400.000    1.355E+02    1.1249640E+06    1.7656808E+03    6.4665282E-03    1.1212135E+06   -6.5731362E-04    1.1209167E+06
   -3.64   400.000    1.344E+02    1.1461666E+06    2.1006347E+03    6.8059275E-03    1.1422746E+06    5.9448148E-05    1.1421375E+06
   -3.63   400.000    1.333E+02    1.1725939E+06    2.2833266E+03    6.9543027E-03    1.1686357E+06    8.5419928E-04    1.1685606E+06
   -3.62   400.000    1.324E+02    1.2061710E+06    2.3009399E+03    6.9237486E-03    1.2022971E+06    1.6979326E-03    1.2021266E+06
   -3.61   400.000    1.315E+02    1.2467972E+06    2.1546697E+03    6.7421801E-03    1.2432163E+06    2.5504253E-03    1.2427610E+06
   -3.60   400.000    1.307E+02    1.2921294E+06    1.8673332E+03    6.4397498E-03    1.2890687E+06    3.3570878E-03    1.2881423E+06
   -3.59   400.000    1.298E+02    1.3380341E+06    1.4890610E+03    6.0362282E-03    1.3356929E+06    4.0468743E-03    1.3341452E+06
   -3.58   400.000    1.291E+02    1.3797193E+06    1.0957819E+03    5.5323979E-03    1.3782353E+06    4.5357671E-03    1.3759733E+06
   -3.57   400.000    1.283E+02    1.4132875E+06    7.7603999E+02    4.9077538E-03    1.4127277E+06    4.7387398E-03    1.4097202E+06
   -3.56   400.000    1.276E+02    1.4371707E+06    6.0662577E+02    4.1257793E-03    1.4375418E+06    4.5886377E-03    1.4338072E+06
   -3.55   400.000    1.269E+02    1.4528331E+06    6.2475902E+02    3.1460542E-03    1.4540976E+06    4.0559105E-03    1.4496777E+06
   -3.54   400.000    1.262E+02    1.4643922E+06    8.0810726E+02    1.9397589E-03    1.4664756E+06    3.1615112E-03    1.4614053E+06
   -3.53   400.000    1.255E+02    1.4773003E+06    1.0698825E+03    5.0368371E-04    1.4800829E+06    1.9778485E-03    1.4743633E+06
   -3.52   400.000    1.248E+02    1.4966277E+06    1.2690652E+03   -1.1309069E-03    1.4999256E+06    6.1792358E-04    1.4935102E+06
   -3.51   400.000    1.241E+02    1.5255852E+06    1.2332512E+03   -2.8957150E-03    1.5291329E+06   -7.8288171E-04    1.5219290E+06
   -3.50   400.000    1.234E+02    1.5647286E+06    7.9416565E+02   -4.6893075E-03    1.5681768E+06   -2.0872183E-03    1.5600640E+06
   -3.49   400.000    1.227E+02    1.6119815E+06   -1.6444170E+02   -6.3883792E-03    1.6149219E+06   -3.1755265E-03    1.6057868E+06
   -3.48   400.000    1.220E+02    1.6633407E+06   -1.6561720E+03   -7.8670787E-03    1.6653602E+06   -3.9640463E-03    1.6551458E+06
   -3.47   400.000    1.213E+02    1.7139637E+06   -3.5615268E+03   -9.0218207E-03    1.7147168E+06   -4.4187804E-03    1.7034766E+06
   -3.46   400.000    1.205E+02    1.7592765E+06   -5.6425551E+03   -9.7943270E-03    1.7585493E+06   -4.5608177E-03    1.7464871E+06
   -3.45   400.000    1.198E+02    1.7957934E+06   -7.6073778E+03   -1.0183879E-02    1.7935335E+06   -4.4594236E-03    1.7810059E+06
   -3.44   400.000    1.190E+02    1.8215088E+06   -9.1971747E+03   -1.0243555E-02    1.8178109E+06   -4.2145934E-03    1.8052796E+06
   -3.43   400.000    1.182E+02    1.8359104E+06   -1.0251895E+04   -1.0062446E-02    1.8309682E+06   -3.9358516E-03    1.8189169E+06
   -3.42   400.000    1.174E+02    1.8397684E+06   -1.0727168E+04   -9.7415706E-03    1.8338182E+06   -3.7241095E-03    1.8226657E+06
   -3.41   400.000    1.166E+02    1.8348309E+06   -1.0668697E+04   -9.3720861E-03    1.8281080E+06   -3.6589058E-03    1.8181509E+06
   -3.40   400.000    1.158E+02    1.8234771E+06   -1.0172190E+04   -9.0213079E-03    1.8161890E+06   -3.7892685E-03    1.8075892E+06
   -3.39   400.000    1.150E+02    1.8083201E+06   -9.3539752E+03   -8.7275547E-03    1.8006313E+06   -4.1263246E-03    1.7934392E+06
   -3.38   400.000    1.141E+02    1.7917530E+06   -8.3407816E+03   -8.5012553E-03    1.7837756E+06   -4.6388031E-03    1.7779667E+06
   -3.37   400.000    1.132E+02    1.7754849E+06   -7.2730624E+03   -8.3283739E-03    1.7672724E+06   -5.2553983E-03    1.7627806E+06
   -3.36   400.000    1.123E+02    1.7601747E+06   -6.3108114E+03   -8.1738057E-03    1.7517234E+06   -5.8778345E-03    1.7484624E+06
   -3.35   400.000    1.114E+02    1.7453093E+06   -5.6314694E+03   -7.9857751E-03    1.7365707E+06   -6.4046216E-03    1.7344475E+06
   -3.34   400.000    1.105E+02    1.7294273E+06   -5.4129979E+03   -7.7042236E-03    1.7203328E+06   -6.7594007E-03    1.7192580E+06
   -3.33   400.000    1.095E+02    1.7106661E+06   -5.7997555E+03   -7.2742111E-03    1.7011596E+06   -6.9130627E-03    1.7010549E+06
   -3.32   400.000    1.085E+02    1.6874419E+06   -6.8545651E+03   -6.6609735E-03    1.6775111E+06   -6.8894829E-03    1.6783100E+06
   -3.31   400.000    1.075E+02    1.6589882E+06   -8.5100713E+03   -5.8609010E-03    1.6486880E+06   -6.7518056E-03    1.6503246E+06
   -3.30   400.000    1.065E+02    1.6255708E+06   -1.0545519E+04   -4.9045727E-03    1.6150340E+06   -6.5758776E-03    1.6174187E+06
   -3.29   400.000    1.055E+02    1.5883911E+06   -1.2618002E+04   -3.8517147E-03    1.5778258E+06   -6.4231824E-03    1.5808141E+06
   -3.28   400.000    1.045E+02    1.5493386E+06   -1.4353616E+04   -2.7800525E-03    1.5390084E+06   -6.3239513E-03    1.5423807E+06
   -3.27   400.000    1.035E+02    1.5107373E+06   -1.5462574E+04   -1.7701247E-03    1.5009211E+06   -6.2743846E-03    1.5043930E+06
   -3.26   400.000    1.024E+02    1.4751195E+06   -1.5820197E+04   -8.8809455E-04    1.4660546E+06   -6.2451612E-03    1.4693294E+06
   -3.25   400.000    1.014E+02    1.4449745E+06   -1.5476886E+04   -1.6949850E-04    1.4368013E+06   -6.1947651E-03    1.4396531E+06
   -3.24   400.000    1.003E+02    1.4224243E+06   -1.4604985E+04    3.9180358E-04    1.4151569E+06   -6.0810982E-03    1.4175097E+06
   -3.23   400.000    9.931E+01    1.4088519E+06   -1.3420071E+04    8.4472430E-04    1.4023918E+06   -5.8678682E-03    1.4043570E+06
   -3.22   400.000    9.828E+01    1.4045735E+06   -1.2113302E+04    1.2691527E-03    1.3987592E+06   -5.5266912E-03    1.4006169E+06
   -3.21   400.000    9.725E+01    1.4086674E+06   -1.0813337E+04    1.7529720E-03    1.4033342E+06   -5.0386818E-03    1.4054695E+06
   -3.20   400.000    9.623E+01    1.4190264E+06   -9.5793343E+03    2.3651316E-03    1.4140523E+06   -4.3984282E-03    1.4168686E+06
   -3.19   400.000    9.522E+01    1.4326423E+06   -8.4174005E+03    3.1346036E-03    1.4279665E+06   -3.6198135E-03    1.4317963E+06
   -3.18   400.000    9.421E+01    1.4460721E+06   -7.3093578E+03    4.0422587E-03    1.4416878E+06   -2.7403198E-03    1.4467128E+06
   -3.17   400.000    9.320E+01    1.4559837E+06   -6.2413942E+03    5.0263145E-03    1.4519118E+06   -1.8200995E-03    1.4581069E+06
   -3.16   400.000    9.220E+01    1.4596384E+06   -5.2212932E+03    5.9966768E-03    1.4558945E+06   -9.3389130E-04    1.4630119E+06
   -3.15   400.000    9.119E+01    1.4551904E+06   -4.2783184E+03    6.8523484E-03    1.4517561E+06   -1.5673587E-04    1.4593631E+06
   -3.14   400.000    9.018E+01    1.4417760E+06   -3.4488234E+03    7.4983033E-03    1.4385858E+06    4.5265742E-04    1.4461532E+06
   -3.13   400.000    8.917E+01    1.4194585E+06   -2.7584950E+03    7.8607306E-03    1.4164087E+06    8.6547462E-04    1.4234265E+06
   -3.12   400.000    8.815E+01    1.3891145E+06   -2.2131122E+03    7.9000742E-03    1.3860917E+06    1.0886189E-03    1.3921730E+06
   -3.11   400.000    8.713E+01    1.3523027E+06   -1.8026922E+03    7.6199605E-03    1.3492180E+06    1.1608201E-03    1.3541616E+06
   -3.10   400.000    8.609E+01    1.3111131E+06   -1.5142171E+03    7.0687671E-03    1.3079253E+06    1.1404798E-03    1.3117231E+06
   -3.09   400.000    8.504E+01    1.2679882E+06   -1.3433069E+03    6.3313260E-03    1.2647009E+06    1.0895742E-03    1.2675011E+06
   -3.08   400.000    8.397E+01    1.2255065E+06   -1.2981073E+03    5.5115955E-03    1.2221422E+06    1.0591471E-03    1.2241901E+06
   -3.07   400.000    8.288E+01    1.1861292E+06   -1.3953204E+03    4.7112694E-03    1.1826944E+06    1.0807830E-03    1.1842727E+06
   -3.06   400.000    8.176E+01    1.1519233E+06   -1.6524922E+03    4.0111866E-03    1.1483832E+06    1.1655346E-03    1.1497689E+06
   -3.05   400.000    8.060E+01    1.1243076E+06   -2.0801989E+03    3.4605630E-03    1.1205763E+06    1.3088753E-03    1.1220221E+06
   -3.04   400.000    7.940E+01    1.1038766E+06   -2.6751543E+03    3.0750875E-03    1.0998194E+06    1.4988480E-03    1.1015569E+06
   -3.03   400.000    7.815E+01    1.0903483E+06   -3.4137292E+03    2.8417481E-03    1.0857861E+06    1.7246475E-03    1.0880394E+06
   -3.02   400.000    7.684E+01    1.0826556E+06   -4.2462555E+03    2.7272679E-03    1.0773719E+06    1.9832187E-03    1.0803643E+06
   -3.01   400.000    7.547E+01    1.0791830E+06   -5.0951899E+03    2.6873489E-03    1.0729357E+06    2.2813779E-03    1.0768792E+06
   -3.00   400.000    7.404E+01    1.0781189E+06   -5.8622592E+03    2.6744586E-03    1.0706630E+06    2.6313438E-03    1.0757302E+06
   -2.99   400.000    7.252E+01    1.0778514E+06   -6.4473958E+03    2.6428513E-03    1.0689697E+06    3.0400149E-03    1.0752597E+06
   -2.98   400.000    7.093E+01    1.0772953E+06   -6.7745873E+03    2.5512540E-03    1.0668323E+06    3.4965554E-03    1.0743445E+06
   -2.97   400.000    6.925E+01    1.0760505E+06   -6.8123931E+03    2.3649782E-03    1.0639416E+06    3.9654988E-03    1.0725703E+06
   -2.96   400.000    6.747E+01    1.0743592E+06   -6.5781479E+03    2.0585657E-03    1.0606507E+06    4.3903289E-03    1.0702018E+06
   -2.95   400.000    6.560E+01    1.0729179E+06   -6.1253874E+03    1.6181109E-03    1.0577769E+06    4.7063719E-03    1.0679959E+06
   -2.94   400.000    6.362E+01    1.0726481E+06   -5.5242711E+03    1.0416299E-03    1.0563614E+06    4.8569089E-03    1.0669587E+06
   -2.93   400.000    6.154E+01    1.0745166E+06   -4.8459562E+03    3.3716608E-04    1.0574796E+06    4.8063122E-03    1.0681421E+06
   -2.92   400.000    5.935E+01    1.0794449E+06   -4.1553184E+03   -4.8003843E-04    1.0621338E+06    4.5472947E-03    1.0725252E+06
   -2.91   400.000    5.705E+01    1.0882828E+06   -3.5096527E+03   -1.3898505E-03    1.0712077E+06    4.1021089E-03    1.0809701E+06
   -2.90   400.000    5.466E+01    1.1017904E+06   -2.9586578E+03   -2.3687241E-03    1.0854313E+06    3.5180918E-03    1.0942027E+06
   -2.89   400.000    5.218E+01    1.1205687E+06   -2.5423094E+03   -3.3910921E-03    1.1053082E+06    2.8579037E-03    1.1127544E+06
   -2.88   400.000    4.962E+01    1.1449159E+06   -2.2857393E+03   -4.4315256E-03    1.1309881E+06    2.1860072E-03    1.1368376E+06
   -2.87   400.000    4.702E+01    1.1746490E+06   -2.1928559E+03   -5.4677120E-03    1.1621197E+06    1.5549171E-03    1.1661828E+06
   -2.86   400.000    4.439E+01    1.2089745E+06   -2.2425511E+03   -6.4831353E-03    1.1977560E+06    9.9536621E-04    1.1999186E+06
   -2.85   400.000    4.177E+01    1.2464941E+06   -2.3914222E+03   -7.4675343E-03    1.2363844E+06    5.1262441E-04    1.2365817E+06
   -2.84   400.000    3.919E+01    1.2853694E+06   -2.5837935E+03   -8.4135847E-03    1.2761012E+06    8.8134395E-05    1.2742884E+06
   -2.83   400.000    3.668E+01    1.3235998E+06   -2.7649367E+03   -9.3101680E-03    1.3148904E+06   -3.1609634E-04    1.3110254E+06
   -2.82   400.000    3.426E+01    1.3593238E+06   -2.8907305E+03   -1.0135144E-02    1.3509190E+06   -7.5211469E-04    1.3449678E+06
   -2.81   400.000    3.196E+01    1.3910547E+06   -2.9294150E+03   -1.0851667E-02    1.3827622E+06   -1.2792809E-03    1.3747241E+06
   -2.80   400.000    2.979E+01    1.4177973E+06   -2.8569907E+03   -1.1410615E-02    1.4095046E+06   -1.9546486E-03    1.3994459E+06
   -2.79   400.000    2.776E+01    1.4390417E+06   -2.6523299E+03   -1.1758834E-02    1.4307155E+06   -2.8201600E-03    1.4187966E+06
   -2.78   400.000    2.588E+01    1.4546723E+06   -2.2975955E+03   -1.1850699E-02    1.4463437E+06   -3.8889745E-03    1.4328292E+06
   -2.77   400.000    2.414E+01    1.4648570E+06   -1.7849944E+03   -1.1659558E-02    1.4566001E+06   -5.1349981E-03    1.4418487E+06
   -2.76   400.000    2.255E+01    1.4699685E+06   -1.1261872E+03   -1.1185374E-02    1.4618832E+06   -6.4893418E-03    1.4463220E+06
   -2.75   400.000    2.108E+01    1.4705505E+06   -3.5918401E+02   -1.0455621E-02    1.4627533E+06   -7.8457465E-03    1.4468439E+06
   -2.74   400.000    1.973E+01    1.4672816E+06    4.5062769E+02   -9.5190572E-03    1.4599047E+06   -9.0750493E-03    1.4441093E+06
   -2.73   400.000    1.849E+01    1.4608803E+06    1.2161742E+03   -8.4353547E-03    1.4540709E+06   -1.0046702E-02    1.4388238E+06
   -2.72   400.000    1.736E+01    1.4519314E+06    1.8411761E+03   -7.2652527E-03    1.4458423E+06   -1.0653120E-02    1.4315272E+06
   -2.71   400.000    1.631E+01    1.4406892E+06    2.2394673E+03   -6.0646200E-03    1.4354574E+06   -1.0830899E-02    1.4223900E+06
   -2.70   400.000    1.534E+01    1.4269614E+06    2.3583455E+03   -4.8830800E-03    1.4226773E+06   -1.0573156E-02    1.4110963E+06
   -2.69   400.000    1.445E+01    1.4101509E+06    2.1968224E+03   -3.7658946E-03    1.4068323E+06   -9.9301108E-03    1.3969032E+06
   -2.68   400.000    1.361E+01    1.3894562E+06    1.8063789E+03   -2.7568441E-03    1.3870392E+06   -8.9994765E-03    1.3788709E+06
   -2.67   400.000    1.284E+01    1.3641521E+06    1.2694573E+03   -1.8992256E-03    1.3625052E+06   -7.9110434E-03    1.3561685E+06
   -2.66   400.000    1.211E+01    1.3338681E+06    6.6656273E+02   -1.2323016E-03    1.3328202E+06   -6.8092893E-03    1.3283537E+06
   -2.65   400.000    1.144E+01    1.2988118E+06    5.2001362E+01   -7.8281782E-04    1.2981803E+06   -5.8355713E-03    1.2955758E+06
   -2.64   400.000    1.080E+01    1.2598990E+06   -5.4895536E+02   -5.5517024E-04    1.2595070E+06   -5.1105023E-03    1.2586841E+06
   -2.63   400.000    1.020E+01    1.2187256E+06   -1.1252894E+03   -5.2645354E-04    1.2184059E+06   -4.7183234E-03    1.2191948E+06
   -2.62   400.000    9.636E+00    1.1773127E+06   -1.6623183E+03   -6.5070500E-04    1.1769059E+06   -4.6961798E-03    1.1790506E+06
   -2.61   400.000    9.102E+00    1.1376348E+06   -2.1331048E+03   -8.7040112E-04    1.1369922E+06   -5.0301295E-03    1.1401754E+06
   -2.60   400.000    8.596E+00    1.1010792E+06   -2.5022054E+03   -1.1276903E-03    1.1000751E+06   -5.6573332E-03    1.1039596E+06
   -2.59   400.000    8.116E+00    1.0680651E+06   -2.7366978E+03   -1.3686158E-03    1.0666172E+06   -6.4728781E-03    1.0708946E+06
   -2.58   400.000    7.659E+00    1.0380072E+06   -2.8174046E+03   -1.5407340E-03    1.0360917E+06   -7.3410420E-03    1.0405286E+06
   -2.57   400.000    7.224E+00    1.0096373E+06   -2.7462515E+03   -1.5916328E-03    1.0072872E+06   -8.1123746E-03    1.0117532E+06
   -2.56   400.000    6.809E+00    9.8151903E+05   -2.5493698E+03   -1.4762563E-03    9.7879972E+05   -8.6469353E-03    9.8326824E+05
   -2.55   400.000    6.414E+00    9.5250100E+05   -2.2761354E+03   -1.1739552E-03    9.4947138E+05   -8.8402101E-03    9.5399571E+05
   -2.54   400.000    6.036E+00    9.2192205E+05   -1.9921823E+03   -7.0713485E-04    9.1859918E+05   -8.6443219E-03    9.2327714E+05
   -2.53   400.000    5.676E+00    8.8953702E+05   -1.7639640E+03   -1.4891277E-04    8.8588134E+05   -8.0764759E-03    8.9082258E+05
   -2.52   400.000    5.333E+00    8.5528662E+05   -1.6371457E+03    3.8912828E-04    8.5121550E+05   -7.2107367E-03    8.5651674E+05
   -2.51   400.000    5.005E+00    8.1909200E+05   -1.6182951E+03    7.8784491E-04    8.1451679E+05   -6.1566527E-03    8.2024257E+05
   -2.50   400.000    4.692E+00    7.8079762E+05   -1.6714313E+03    9.5816694E-04    7.7566907E+05   -5.0342406E-03    7.8183645E+05
   -2.49   400.000    4.393E+00    7.4026675E+05   -1.7335307E+03    8.6895773E-04    7.3460971E+05   -3.9546944E-03    7.4117920E+05
   -2.48   400.000    4.108E+00    6.9753787E+05   -1.7409557E+03    5.5302448E-04    6.9146128E+05   -3.0099836E-03    6.9833748E+05
   -2.47   400.000    3.836E+00    6.5293254E+05   -1.6523036E+03    8.9959566E-05    6.4661206E+05   -2.2679533E-03    6.5365381E+05
   -2.46   400.000    3.578E+00    6.0705111E+05   -1.4575427E+03   -4.2459600E-04    6.0069226E+05   -1.7682813E-03    6.0772906E+05
   -2.45   400.000    3.332E+00    5.6065596E+05   -1.1733501E+03   -9.0845349E-04    5.5445151E+05   -1.5185249E-03    5.6130317E+05
   -2.44   400.000    3.099E+00    5.1449377E+05   -8.3152346E+02   -1.3092185E-03    5.0859001E+05   -1.4933943E-03    5.1508730E+05
   -2.43   400.000    2.877E+00    4.6913701E+05   -4.6770842E+02   -1.6043220E-03    4.6361912E+05   -1.6403042E-03    4.6962275E+05
   -2.42   400.000    2.669E+00    4.2491683E+05   -1.1411586E+02   -1.7905555E-03    4.1981556E+05   -1.8908563E-03    4.2522953E+05
   -2.41   400.000    2.472E+00    3.8197104E+05    2.0370585E+02   -1.8726464E-03    3.7728383E+05   -2.1746871E-03    3.8205966E+05
   -2.40   400.000    2.287E+00    3.4036778E+05    4.6774674E+02   -1.8575537E-03    3.3608239E+05   -2.4314284E-03    3.4021418E+05
   -2.39   400.000    2.116E+00    3.0023032E+05    6.6765863E+02   -1.7550750E-03    2.9634045E+05   -2.6180345E-03    2.9985403E+05
   -2.38   400.000    1.957E+00    2.6180234E+05    8.0062514E+02   -1.5808562E-03    2.5831125E+05   -2.7108805E-03    2.6125234E+05
   -2.37   400.000    1.812E+00    2.2543872E+05    8.7056481E+02   -1.3574530E-03    2.2235333E+05   -2.7037436E-03    2.2477831E+05
   -2.36   400.000    1.681E+00    1.9154603E+05    8.8631356E+02   -1.1117050E-03    1.8886812E+05   -2.6036362E-03    1.9083809E+05
   -2.35   400.000    1.564E+00    1.6050960E+05    8.5919591E+02   -8.6966382E-04    1.5822935E+05   -2.4263482E-03    1.5980662E+05
   -2.34   400.000    1.462E+00    1.3263278E+05    8.0088710E+02   -6.5167469E-04    1.3072708E+05   -2.1926807E-03    1.3197268E+05
   -2.33   400.000    1.373E+00    1.0809752E+05    7.2215763E+02   -4.6967483E-04    1.0653224E+05   -1.9253749E-03    1.0750376E+05
   -2.32   400.000    1.298E+00    8.6945909E+04    6.3239970E+02   -3.2727020E-04    8.5680190E+04   -1.6463810E-03    8.6429885E+04
   -2.31   400.000    1.235E+00    6.9080814E+04    5.3947179E+02   -2.2181888E-04    6.8071332E+04   -1.3744519E-03    6.8644851E+04
   -2.30   400.000    1.184E+00    5.4283818E+04    4.4954990E+02   -1.4722018E-04    5.3488280E+04   -1.1234665E-03    5.3924088E+04
   -2.29   400.000    1.143E+00    4.2246918E+04    3.6699157E+02   -9.6341377E-05    4.1626366E+04   -9.0185839E-04    4.1955896E+04
   -2.28   400.000    1.110E+00    3.2610967E+04    2.9435367E+02   -6.2587391E-05    3.2131061E+04   -7.1312011E-04    3.2379358E+04
   -2.27   400.000    1.084E+00    2.5002753E+04    2.3262817E+02   -4.0620115E-05    2.4634247E+04   -5.5697943E-04    2.4820887E+04
   -2.26   400.000    1.064E+00    1.9064496E+04    1.8163354E+02   -2.6484096E-05    1.8783161E+04   -4.3075846E-04    1.8923230E+04
   -2.25   400.000    1.049E+00    1.4473128E+04    1.4044435E+02   -1.7424632E-05    1.4259333E+04   -3.3056172E-04    1.4364341E+04
   -2.24   400.000    1.037E+00    1.0949846E+04    1.0776329E+02   -1.1605679E-05    1.0787968E+04   -2.5214009E-04    1.0866638E+04
   -2.23   400.000    1.028E+00    8.2622272E+03    8.2191680E+01   -7.8400028E-06    8.1400063E+03   -1.9142675E-04    8.1989174E+03
   -2.22   400.000    1.021E+00    6.2215550E+03    6.2397402E+01   -5.3747105E-06    6.1294781E+03   -1.4481363E-04    6.1735804E+03
   -2.21   400.000    1.016E+00    4.6776472E+03    4.7201377E+01   -3.7373729E-06    4.6083960E+03   -1.0925271E-04    4.6414058E+03
   -2.20   400.000    1.012E+00    3.5127956E+03    3.5608697E+01   -2.6324607E-06    3.4607782E+03   -8.2253732E-05    3.4854821E+03
   -2.19   400.000    1.009E+00    2.6358045E+03    2.6807006E+01   -1.8744969E-06    2.5967695E+03   -6.1829601E-05    2.6152558E+03
   -2.18   400.000    1.007E+00    1.9766342E+03    2.0148257E+01   -1.3460604E-06    1.9473624E+03   -4.6421312E-05    1.9611949E+03
   -2.17   400.000    1.005E+00    1.4818494E+03    1.5124065E+01   -9.7182930E-07    1.4599103E+03   -3.4820714E-05    1.4702598E+03
   -2.16   400.000    1.004E+00    1.1108899E+03    1.1340433E+01   -7.0266599E-07    1.0944522E+03   -2.6099957E-05    1.1021951E+03
   -2.15   400.000    1.003E+00    8.3309010E+02    8.4947043E+00   -5.0586688E-07    8.2077664E+02   -1.9551162E-05    8.2656881E+02
   -2.14   400.000    1.002E+00    6.2534138E+02    6.3558667E+00   -3.5915672E-07    6.1611747E+02   -1.4636887E-05    6.2044955E+02
   -2.13   400.000    1.002E+00    4.7028105E+02    4.7483770E+00   -2.4694394E-07    4.6336993E+02   -1.0950520E-05    4.6660895E+02
   -2.12   400.000    1.001E+00    3.5490448E+02    3.5392170E+00   -1.5794036E-07    3.4972321E+02   -8.1851810E-06    3.5214363E+02
   -2.11   400.000    1.001E+00    2.6950999E+02    2.6277159E+00   -8.3603502E-08    2.6562099E+02   -6.1096116E-06    2.6742793E+02
   -2.10   400.000    1.001E+00    2.0690309E+02    1.9376360E+00   -1.7072771E-08    2.0397764E+02   -4.5496452E-06    2.0532421E+02
   -2.09   400.000    1.000E+00    1.6180163E+02    1.4110608E+00    4.7603326E-08    1.5959226E+02   -3.3740469E-06    1.6059259E+02
   -2.08   400.000    1.000E+00    1.3039637E+02    1.0036819E+00    1.1607875E-07    1.2871612E+02   -2.4837289E-06    1.2945499E+02
   -2.07   400.000    1.000E+00    1.1003284E+02    6.8115532E-01    1.9424830E-07    1.0873946E+02   -1.8035430E-06    1.0927949E+02
   -2.06   400.000    1.000E+00    9.8988880E+01    4.1625377E-01    2.8877856E-07    9.7972830E+01   -1.2760188E-06    9.8359793E+01
   -2.05   400.000    1.000E+00    9.6329931E+01    1.8659691E-01    4.0768715E-07    9.5505176E+01   -8.5655543E-07    9.5771871E+01
   -2.04   400.000    9.999E-01    1.0183040E+02   -2.7220844E-02    5.6102407E-07    1.0112711E+02   -5.0967931E-07    1.0129615E+02
   -2.03   400.000    9.999E-01    1.1595446E+02   -2.4325442E-01    7.6171376E-07    1.1531312E+02   -2.0606477E-07    1.1539884E+02
   -2.02   400.000    9.998E-01    1.3989463E+02   -4.7971506E-01    1.0266257E-06    1.3926104E+02    7.9925728E-08    1.3927072E+02
   -2.01   400.000    9.997E-01    1.7567135E+02   -7.5647968E-01    1.3779558E-06    1.7499208E+02    3.7238162E-07    1.7492658E+02
   -2.00   400.000    9.995E-01    2.2630119E+02   -1.0967189E+00    1.8450191E-06    2.2551912E+02    6.9583475E-07    2.2537296E+02
   -1.99   400.000    9.993E-01    2.9604708E+02   -1.5287624E+00    2.4665754E-06    2.9509675E+02    1.0772519E-06    2.9485766E+02
   -1.98   400.000    9.991E-01    3.9076993E+02   -2.0883266E+00    3.2938309E-06    3.8957229E+02    1.5481697E-06    3.8922021E+02
   -1.97   400.000    9.988E-01    5.1840809E+02   -2.8212349E+00    4.3942748E-06    5.1686423E+02    2.1471041E-06    5.1636970E+02
   -1.96   400.000    9.983E-01    6.8961934E+02   -3.7867596E+00    5.8565069E-06    6.8760310E+02    2.9223559E-06    6.8692487E+02
   -1.95   400.000    9.978E-01    9.1862981E+02   -5.0616914E+00    7.7961698E-06    9.1597858E+02    3.9353106E-06    9.1506038E+02
   -1.94   400.000    9.970E-01    1.2243434E+03   -6.7451749E+00    1.0362975E-05    1.2208472E+03    5.2642816E-06    1.2196134E+03
   -1.93   400.000    9.960E-01    1.6317749E+03   -8.9641997E+00    1.3748532E-05    1.6271633E+03    7.0088555E-06    1.6255132E+03
   -1.92   400.000    9.947E-01    2.1738731E+03   -1.1879335E+01    1.8194140E-05    2.1678010E+03    9.2945466E-06    2.1656019E+03
   -1.91   400.000    9.929E-01    2.8937987E+03   -1.5689763E+01    2.3996693E-05    2.8858317E+03    1.2277362E-05    2.8829100E+03
   -1.90   400.000    9.906E-01    3.8476934E+03   -2.0635751E+01    3.1509119E-05    3.8372958E+03    1.6147686E-05    3.8334273E+03
   -1.89   400.000    9.875E-01    5.1079258E+03   -2.6995348E+01    4.1129065E-05    5.0944575E+03    2.1132933E-05    5.0893568E+03
   -1.88   400.000    9.834E-01    6.7666882E+03   -3.5070172E+01    5.3265564E-05    6.7494196E+03    2.7499232E-05    6.7427319E+03
   -1.87   400.000    9.780E-01    8.9396465E+03   -4.5153116E+01    6.8268703E-05    8.9178068E+03    3.5554975E-05    8.9091066E+03
   -1.86   400.000    9.711E-01    1.1769086E+04   -5.7469539E+01    8.6303490E-05    1.1741968E+04    4.5664755E-05    1.1730774E+04
   -1.85   400.000    9.620E-01    1.5425705E+04   -7.2085291E+01    1.0715106E-04    1.5392849E+04    5.8291648E-05    1.5378670E+04
   -1.84   400.000    9.505E-01    2.0107952E+04   -8.8783185E+01    1.2993712E-04    2.0069431E+04    7.4096047E-05    2.0051872E+04
   -1.83   400.000    9.358E-01    2.6037830E+04   -1.0692715E+02    1.5283107E-04    2.5994630E+04    9.4118323E-05    2.5973574E+04
   -1.82   400.000    9.174E-01    3.3452632E+04   -1.2535743E+02    1.7283536E-04    3.3407054E+04    1.2003727E-04    3.3382944E+04
   -1.81   400.000    8.947E-01    4.2593268E+04   -1.4237447E+02    1.8587066E-04    4.2549193E+04    1.5440448E-04    4.2523368E+04
   -1.80   400.000    8.670E-01    5.3691357E+04   -1.5584313E+02    1.8738946E-04    5.3654124E+04    2.0063074E-04    5.3629078E+04
   -1.79   400.000    8.340E-01    6.6957949E+04   -1.6336338E+02    1.7362292E-04    6.6933576E+04    2.6247543E-04    6.6912913E+04
   -1.78   400.000    7.952E-01    8.2575221E+04   -1.6235767E+02    1.4327000E-04    8.2568935E+04    3.4307922E-04    8.2556731E+04
   -1.77   400.000    7.503E-01    1.0068855E+05   -1.4995580E+02    9.9144892E-05    1.0070296E+05    4.4424552E-04    1.0070243E+05
   -1.76   400.000    6.993E-01    1.2139270E+05   -1.2281299E+02    4.9274037E-05    1.2142638E+05    5.6724610E-04    1.2143795E+05
   -1.75   400.000    6.421E-01    1.4470744E+05   -7.7308071E+01    7.1760781E-06    1.4475453E+05    7.1593368E-04    1.4477383E+05
   -1.74   400.000    5.788E-01    1.7054783E+05   -1.0513917E+01   -8.8883144E-06    1.7059906E+05    9.0089884E-04    1.7061504E+05
   -1.73   400.000    5.096E-01    1.9870912E+05    7.8267833E+01    2.1560699E-05    1.9875335E+05    1.1410442E-03    1.9874754E+05
   -1.72   400.000    4.346E-01    2.2889262E+05    1.8626158E+02    1.1558266E-04    2.2891827E+05    1.4588030E-03    2.2886593E+05
   -1.71   400.000    3.540E-01    2.6078588E+05    3.0707769E+02    2.7735933E-04    2.6078128E+05    1.8685394E-03    2.6065585E+05
   -1.70   400.000    2.683E-01    2.9417779E+05    4.3178603E+02    4.8669842E-04    2.9413053E+05    2.3623354E-03    2.9391102E+05
   -1.69   400.000    1.778E-01    3.2905749E+05    5.5069203E+02    6.9021503E-04    3.2895316E+05    2.8996510E-03    3.2863283E+05
   -1.68   400.000    8.275E-02    3.6564240E+05    6.5517190E+02    8.0084108E-04    3.6546381E+05    3.4057080E-03    3.6505666E+05
   -1.67   400.000   -1.654E-02    4.0431281E+05    7.3896879E+02    7.0889103E-04    4.0404043E+05    3.7799451E-03    4.0358282E+05
   -1.66   400.000   -1.199E-01    4.4547464E+05    7.9847571E+02    3.0295303E-04    4.4508874E+05    3.9131441E-03    4.4463464E+05
   -1.65   400.000   -2.274E-01    4.8939707E+05    8.3208280E+02   -5.0611375E-04    4.8888138E+05    3.7099665E-03    4.8849232E+05
   -1.64   400.000   -3.391E-01    5.3606926E+05    8.3945323E+02   -1.7666146E-03    5.3541565E+05    3.1113342E-03    5.3514833E+05
   -1.63   400.000   -4.550E-01    5.8510899E+05    8.2171308E+02   -3.4780140E-03    5.8432255E+05    2.1092385E-03    5.8421933E+05
   -1.62   400.000   -5.753E-01    6.3574998E+05    7.8264067E+02   -5.5915822E-03    6.3485438E+05    7.4846173E-04    6.3494193E+05
   -1.61   400.000   -7.000E-01    6.8692774E+05    7.2984080E+02   -8.0127856E-03    6.8596980E+05   -8.8355179E-04    6.8626812E+05
   -1.60   400.000   -8.290E-01    7.3746044E+05    6.7456869E+02   -1.0600930E-02    7.3651112E+05   -2.6704757E-03    7.3704821E+05
   -1.59   400.000   -9.620E-01    7.8628776E+05    6.2943296E+02   -1.3170401E-02    7.8543483E+05   -4.4760895E-03    7.8625682E+05
   -1.58   400.000   -1.099E+00    8.3271004E+05    6.0419482E+02   -1.5504382E-02    8.3203886E+05   -6.1481565E-03    8.3320609E+05
   -1.57   400.000   -1.239E+00    8.7657202E+05    6.0095552E+02   -1.7386919E-02    8.7613678E+05   -7.5259277E-03    8.7770578E+05
   -1.56   400.000   -1.381E+00    9.1834909E+05    6.1086961E+02   -1.8644146E-02    9.1814554E+05   -8.4597932E-03    9.2014803E+05
   -1.55   400.000   -1.527E+00    9.5910917E+05    6.1453009E+02   -1.9174509E-02    9.5906259E+05   -8.8408859E-03    9.6149731E+05
   -1.54   400.000   -1.674E+00    1.0003473E+06    5.8686492E+02   -1.8954343E-02    1.0003237E+06   -8.6281912E-03    1.0031680E+06
   -1.53   400.000   -1.824E+00    1.0437217E+06    5.0517815E+02   -1.8025299E-02    1.0435583E+06   -7.8619894E-03    1.0467922E+06
   -1.52   400.000   -1.976E+00    1.0907389E+06    3.5722598E+02   -1.6484541E-02    1.0902810E+06   -6.6628957E-03    1.0939087E+06
   -1.51   400.000   -2.130E+00    1.1424261E+06    1.4624376E+02   -1.4492770E-02    1.1415597E+06   -5.2226022E-03    1.1456157E+06
   -1.50   400.000   -2.289E+00    1.1990234E+06   -1.0842675E+02   -1.2293501E-02    1.1976968E+06   -3.7884112E-03    1.2022337E+06
   -1.49   400.000   -2.451E+00    1.2597500E+06   -3.7457146E+02   -1.0218553E-02    1.2579849E+06   -2.6353658E-03    1.2630477E+06
   -1.48   400.000   -2.617E+00    1.3227387E+06   -6.1307277E+02   -8.6546217E-03    1.3206280E+06   -2.0193148E-03    1.3262223E+06
   -1.47   400.000   -2.788E+00    1.3852280E+06   -7.8599071E+02   -7.9645786E-03    1.3829194E+06   -2.1154382E-03    1.3889828E+06
   -1.46   400.000   -2.963E+00    1.4440193E+06   -8.6616757E+02   -8.3831601E-03    1.4416822E+06   -2.9608946E-03    1.4480725E+06
   -1.45   400.000   -3.142E+00    1.4960820E+06   -8.4627811E+02   -9.9253380E-03    1.4938645E+06   -4.4247740E-03    1.5003746E+06
   -1.44   400.000   -3.325E+00    1.5391082E+06   -7.4329039E+02   -1.2346294E-02    1.5370966E+06   -6.2193432E-03    1.5435038E+06
   -1.43   400.000   -3.511E+00    1.5718456E+06   -5.9459094E+02   -1.5173515E-02    1.5700428E+06   -7.9507409E-03    1.5761781E+06
   -1.42   400.000   -3.700E+00    1.5941407E+06   -4.4599798E+02   -1.7803176E-02    1.5924715E+06   -9.1942809E-03    1.5982814E+06
   -1.41   400.000   -3.890E+00    1.6067487E+06   -3.3703937E+02   -1.9628638E-02    1.6050851E+06   -9.5733597E-03    1.6106530E+06
   -1.40   400.000   -4.081E+00    1.6110309E+06   -2.9057799E+02   -2.0159885E-02    1.6092238E+06   -8.8219316E-03    1.6147383E+06
   -1.39   400.000   -4.274E+00    1.6086678E+06   -3.1054552E+02   -1.9102382E-02    1.6065693E+06   -6.8189492E-03    1.6122541E+06
   -1.38   400.000   -4.467E+00    1.6014673E+06   -3.8644834E+02   -1.6385571E-02    1.5989403E+06   -3.5965222E-03    1.6049722E+06
   -1.37   400.000   -4.661E+00    1.5912759E+06   -5.0049336E+02   -1.2150849E-02    1.5881902E+06    6.6734572E-04    1.5946360E+06
   -1.36   400.000   -4.857E+00    1.5799221E+06   -6.3356875E+02   -6.7151751E-03    1.5761456E+06    5.6642318E-03    1.5829348E+06
   -1.35   400.000   -5.054E+00    1.5691000E+06   -7.6827015E+02   -5.2045996E-04    1.5644928E+06    1.0983729E-02    1.5714298E+06
   -1.34   400.000   -5.254E+00    1.5601652E+06   -8.8904492E+02    5.9284036E-03    1.5545803E+06    1.6164708E-02    1.5613860E+06
   -1.33   400.000   -5.458E+00    1.5539232E+06   -9.8072238E+02    1.2134270E-02    1.5472192E+06    2.0769501E-02    1.5535846E+06
   -1.32   400.000   -5.666E+00    1.5505586E+06   -1.0272178E+03    1.7679004E-02    1.5426209E+06    2.4465124E-02    1.5482582E+06
   -1.31   400.000   -5.879E+00    1.5497971E+06   -1.0121166E+03    2.2282478E-02    1.5405638E+06    2.7087548E-02    1.5452497E+06
   -1.30   400.000   -6.098E+00    1.5512615E+06   -9.2202178E+02    2.5836967E-02    1.5407461E+06    2.8668806E-02    1.5443557E+06
   -1.29   400.000   -6.322E+00    1.5548534E+06   -7.5180252E+02    2.8408298E-02    1.5431537E+06    2.9416283E-02    1.5456851E+06
   -1.28   400.000   -6.551E+00    1.5609622E+06   -5.0875940E+02    3.0199847E-02    1.5482496E+06    2.9644721E-02    1.5498303E+06
   -1.27   400.000   -6.784E+00    1.5704128E+06   -2.1203723E+02    3.1483416E-02    1.5569027E+06    2.9676201E-02    1.5577662E+06
   -1.26   400.000   -7.020E+00    1.5842297E+06    1.1386285E+02    3.2513216E-02    1.5701387E+06    2.9740280E-02    1.5705655E+06
   -1.25   400.000   -7.259E+00    1.6033974E+06    4.4799094E+02    3.3449165E-02    1.5888993E+06    2.9912998E-02    1.5891299E+06
   -1.24   400.000   -7.498E+00    1.6287514E+06    7.7843536E+02    3.4314571E-02    1.6139424E+06    3.0117932E-02    1.6140823E+06
   -1.23   400.000   -7.739E+00    1.6610063E+06    1.1016965E+03    3.5001121E-02    1.6458867E+06    3.0181616E-02    1.6458279E+06
   -1.22   400.000   -7.979E+00    1.7008331E+06    1.4194332E+03    3.5319143E-02    1.6853057E+06    2.9912701E-02    1.6846857E+06
   -1.21   400.000   -8.220E+00    1.7489021E+06    1.7389029E+03    3.5077748E-02    1.7327813E+06    2.9173371E-02    1.7309875E+06
   -1.20   400.000   -8.461E+00    1.8058673E+06    2.0793084E+03    3.4167350E-02    1.7888899E+06    2.7923730E-02    1.7851018E+06
   -1.19   400.000   -8.702E+00    1.8723102E+06    2.4784281E+03    3.2611654E-02    1.8541436E+06    2.6229284E-02    1.8473948E+06
   -1.18   400.000   -8.944E+00    1.9486748E+06    2.9896533E+03    3.0568815E-02    1.9289245E+06    2.4228649E-02    1.9181758E+06
   -1.17   400.000   -9.187E+00    2.0352137E+06    3.6636449E+03    2.8290392E-02    2.0134437E+06    2.2073080E-02    1.9976721E+06
   -1.16   400.000   -9.432E+00    2.1319275E+06    4.5195035E+03    2.6069887E-02    2.1077065E+06    1.9867463E-02    2.0860309E+06
   -1.15   400.000   -9.680E+00    2.2384028E+06    5.5206066E+03    2.4209364E-02    2.2113881E+06    1.7645920E-02    2.1832406E+06
   -1.14   400.000   -9.932E+00    2.3534490E+06    6.5719628E+03    2.3008114E-02    2.3235033E+06    1.5394828E-02    2.2888306E+06
   -1.13   400.000   -1.019E+01    2.4745759E+06    7.5452876E+03    2.2755950E-02    2.4418963E+06    1.3105852E-02    2.4013466E+06
   -1.12   400.000   -1.045E+01    2.5976023E+06    8.3210334E+03    2.3711226E-02    2.5628165E+06    1.0824454E-02    2.5178552E+06
   -1.11   400.000   -1.072E+01    2.7167959E+06    8.8265357E+03    2.6055121E-02    2.6809745E+06    8.6652370E-03    2.6338690E+06
   -1.10   400.000   -1.099E+01    2.8257435E+06    9.0537029E+03    2.9827367E-02    2.7902863E+06    6.7855882E-03    2.7439193E+06
   -1.09   400.000   -1.127E+01    2.9187128E+06    9.0520999E+03    3.4859894E-02    2.8851149E+06    5.3289951E-03    2.8426196E+06
   -1.08   400.000   -1.156E+01    2.9919256E+06    8.9031003E+03    4.0734849E-02    2.9614828E+06    4.3619300E-03    2.9257601E+06
   -1.07   400.000   -1.185E+01    3.0441688E+06    8.6849508E+03    4.6797772E-02    3.0177254E+06    3.8319915E-03    2.9909678E+06
   -1.06   400.000   -1.214E+01    3.0765315E+06    8.4407569E+03    5.2246696E-02    3.0543589E+06    3.5681330E-03    3.0377277E+06
   -1.05   400.000   -1.244E+01    3.0915349E+06    8.1629314E+03    5.6290345E-02    3.0733741E+06    3.3259793E-03    3.0669174E+06
   -1.04   400.000   -1.273E+01    3.0922279E+06    7.8041899E+03    5.8332821E-02    3.0774576E+06    2.8596891E-03    3.0802592E+06
   -1.03   400.000   -1.303E+01    3.0817643E+06    7.3126534E+03    5.8118609E-02    3.0696154E+06    1.9893388E-03    3.0800934E+06
   -1.02   400.000   -1.333E+01    3.0636012E+06    6.6723799E+03    5.5779845E-02    3.0533416E+06    6.3780680E-04    3.0695926E+06
   -1.01   400.000   -1.362E+01    3.0420347E+06    5.9246391E+03    5.1769142E-02    3.0330772E+06   -1.1696017E-03    3.0531839E+06
   -1.00   400.000   -1.392E+01    3.0225808E+06    5.1571736E+03    4.6712071E-02    3.0145074E+06   -3.3297055E-03    3.0367606E+06
   -0.99   400.000   -1.422E+01    3.0117896E+06    4.4697224E+03    4.1242275E-02    3.0043148E+06   -5.6910855E-03    3.0273383E+06
   -0.98   400.000   -1.451E+01    3.0163643E+06    3.9384167E+03    3.5877017E-02    3.0092743E+06   -8.0801512E-03    3.0320740E+06
   -0.97   400.000   -1.481E+01    3.0418036E+06    3.6011078E+03    3.0963704E-02    3.0349036E+06   -1.0329244E-02    3.0568777E+06
   -0.96   400.000   -1.511E+01    3.0910249E+06    3.4721046E+03    2.6696737E-02    3.0841113E+06   -1.2314255E-02    3.1050505E+06
   -0.95   400.000   -1.541E+01    3.1634249E+06    3.5756638E+03    2.3178947E-02    3.1562823E+06   -1.3995036E-02    3.1763678E+06
   -0.94   400.000   -1.572E+01    3.2546124E+06    3.9737836E+03    2.0487946E-02    3.2470259E+06   -1.5435057E-02    3.2668107E+06
   -0.93   400.000   -1.603E+01    3.3568067E+06    4.7653727E+03    1.8709563E-02    3.3485772E+06   -1.6776211E-02    3.3689244E+06
   -0.92   400.000   -1.635E+01    3.4597883E+06    6.0514915E+03    1.7919198E-02    3.4507433E+06   -1.8166781E-02    3.4726955E+06
   -0.91   400.000   -1.668E+01    3.5523299E+06    7.8836423E+03    1.8120297E-02    3.5423241E+06   -1.9672458E-02    3.5668992E+06
   -0.90   400.000   -1.701E+01    3.6240455E+06    1.0223317E+04    1.9175054E-02    3.6129473E+06   -2.1218957E-02    3.6409010E+06
   -0.89   400.000   -1.735E+01    3.6674338E+06    1.2933308E+04    2.0773242E-02    3.6550988E+06   -2.2604507E-02    3.6867371E+06
   -0.88   400.000   -1.770E+01    3.6796319E+06    1.5800925E+04    2.2472282E-02    3.6658715E+06   -2.3583984E-02    3.7009976E+06
   -0.87   400.000   -1.805E+01    3.6632764E+06    1.8575982E+04    2.3806311E-02    3.6478435E+06   -2.3984506E-02    3.6858622E+06
   -0.86   400.000   -1.840E+01    3.6260702E+06    2.1004700E+04    2.4421605E-02    3.6086832E+06   -2.3791714E-02    3.6488037E+06
   -0.85   400.000   -1.876E+01    3.5790879E+06    2.2853408E+04    2.4177996E-02    3.5595035E+06   -2.3162213E-02    3.6009398E+06
   -0.84   400.000   -1.912E+01    3.5343201E+06    2.3929835E+04    2.3174737E-02    3.5124339E+06   -2.2361607E-02    3.5545325E+06
   -0.83   400.000   -1.948E+01    3.5022163E+06    2.4110968E+04    2.1699690E-02    3.4781538E+06   -2.1669634E-02    3.5204407E+06
   -0.82   400.000   -1.984E+01    3.4899264E+06    2.3373397E+04    2.0132961E-02    3.4640916E+06   -2.1305274E-02    3.5062769E+06
   -0.81   400.000   -2.021E+01    3.5006248E+06    2.1808773E+04    1.8843414E-02    3.4736969E+06   -2.1400946E-02    3.5156785E+06
   -0.80   400.000   -2.058E+01    3.5339126E+06    1.9608932E+04    1.8104149E-02    3.5067995E+06   -2.2018422E-02    3.5486750E+06
   -0.79   400.000   -2.095E+01    3.5869950E+06    1.7022660E+04    1.8037344E-02    3.5607561E+06   -2.3177931E-02    3.6028147E+06
   -0.78   400.000   -2.132E+01    3.6561415E+06    1.4303757E+04    1.8591381E-02    3.6318843E+06   -2.4875696E-02    3.6745378E+06
   -0.77   400.000   -2.169E+01    3.7378767E+06    1.1672540E+04    1.9553745E-02    3.7166390E+06   -2.7081529E-02    3.7602771E+06
   -0.76   400.000   -2.207E+01    3.8295109E+06    9.2990499E+03    2.0603459E-02    3.8121487E+06   -2.9721471E-02    3.8569521E+06
   -0.75   400.000   -2.246E+01    3.9289897E+06    7.2992393E+03    2.1399344E-02    3.9160994E+06   -3.2657138E-02    3.9618822E+06
   -0.74   400.000   -2.285E+01    4.0344260E+06    5.7292117E+03    2.1684390E-02    4.0263187E+06   -3.5676836E-02    4.0724760E+06
   -0.73   400.000   -2.325E+01    4.1437812E+06    4.5711690E+03    2.1370293E-02    4.1405039E+06   -3.8511432E-02    4.1861035E+06
   -0.72   400.000   -2.365E+01    4.2548855E+06    3.7198962E+03    2.0562874E-02    4.2562678E+06   -4.0877278E-02    4.3002564E+06
   -0.71   400.000   -2.407E+01    4.3656058E+06    2.9881241E+03    1.9508831E-02    4.3713032E+06   -4.2534856E-02    4.4127416E+06
   -0.70   400.000   -2.449E+01    4.4738437E+06    2.1446658E+03    1.8483282E-02    4.4833691E+06   -4.3344676E-02    4.5216005E+06
   -0.69   400.000   -2.492E+01    4.5772853E+06    9.8174998E+02    1.7673321E-02    4.5900530E+06   -4.3302611E-02    4.6247533E+06
   -0.68   400.000   -2.536E+01    4.6731603E+06   -6.1278463E+02    1.7117374E-02    4.6885849E+06   -4.2542293E-02    4.7197129E+06
   -0.67   400.000   -2.581E+01    4.7583649E+06   -2.6128931E+03    1.6724826E-02    4.7760333E+06   -4.1302498E-02    4.8037284E+06
   -0.66   400.000   -2.627E+01    4.8300697E+06   -4.8653108E+03    1.6349617E-02    4.8499412E+06   -3.9871484E-02    4.8744066E+06
   -0.65   400.000   -2.673E+01    4.8865700E+06   -7.1500162E+03    1.5864543E-02    4.9091164E+06   -3.8527895E-02    4.9305097E+06
   -0.64   400.000   -2.719E+01    4.9279534E+06   -9.2585099E+03    1.5197804E-02    4.9541609E+06   -3.7491190E-02    4.9725161E+06
   -0.63   400.000   -2.766E+01    4.9562747E+06   -1.1051705E+04    1.4330929E-02    4.9874907E+06   -3.6882506E-02    5.0027001E+06
   -0.62   400.000   -2.813E+01    4.9751846E+06   -1.2476868E+04    1.3284018E-02    5.0128552E+06   -3.6694530E-02    5.0247246E+06
   -0.61   400.000   -2.860E+01    4.9891457E+06   -1.3547864E+04    1.2113337E-02    5.0345222E+06   -3.6778087E-02    5.0428774E+06
   -0.60   400.000   -2.908E+01    5.0024475E+06   -1.4307185E+04    1.0925857E-02    5.0563237E+06   -3.6859706E-02    5.0611319E+06
   -0.59   400.000   -2.955E+01    5.0182904E+06   -1.4789219E+04    9.8944647E-03    5.0808132E+06   -3.6595469E-02    5.0822856E+06
   -0.58   400.000   -3.003E+01    5.0382309E+06   -1.4998891E+04    9.2504722E-03    5.1088090E+06   -3.5643948E-02    5.1074733E+06
   -0.57   400.000   -3.050E+01    5.0621466E+06   -1.4912829E+04    9.2394778E-03    5.1394771E+06   -3.3724962E-02    5.1362164E+06
   -0.56   400.000   -3.098E+01    5.0886251E+06   -1.4501559E+04    1.0046305E-02    5.1708439E+06   -3.0640603E-02    5.1668892E+06
   -0.55   400.000   -3.146E+01    5.1155155E+06   -1.3761234E+04    1.1714865E-02    5.2004396E+06   -2.6266357E-02    5.1972872E+06
   -0.54   400.000   -3.194E+01    5.1404560E+06   -1.2736369E+04    1.4099428E-02    5.2258443E+06   -2.0545071E-02    5.2250836E+06
   -0.53   400.000   -3.242E+01    5.1613766E+06   -1.1518012E+04    1.6876023E-02    5.2451316E+06   -1.3511533E-02    5.2482021E+06
   -0.52   400.000   -3.290E+01    5.1769989E+06   -1.0216757E+04    1.9614798E-02    5.2572738E+06   -5.3441728E-03    5.2652166E+06
   -0.51   400.000   -3.338E+01    5.1871794E+06   -8.9271341E+03    2.1880927E-02    5.2624213E+06    3.5913747E-03    5.2757002E+06
   -0.50   400.000   -3.385E+01    5.1928416E+06   -7.7041997E+03    2.3318790E-02    5.2618328E+06    1.2749461E-02    5.2802779E+06
   -0.49   400.000   -3.433E+01    5.1954613E+06   -6.5616186E+03    2.3693323E-02    5.2573936E+06    2.1481471E-02    5.2802701E+06
   -0.48   400.000   -3.481E+01    5.1964263E+06   -5.4858292E+03    2.2895675E-02    5.2509839E+06    2.9161873E-02    5.2771437E+06
   -0.47   400.000   -3.528E+01    5.1967027E+06   -4.4567520E+03    2.0937494E-02    5.2440827E+06    3.5311754E-02    5.2721490E+06
   -0.46   400.000   -3.576E+01    5.1969671E+06   -3.4711863E+03    1.7948012E-02    5.2377901E+06    3.9667708E-02    5.2663407E+06
   -0.45   400.000   -3.623E+01    5.1979934E+06   -2.5688217E+03    1.4166600E-02    5.2331160E+06    4.2174250E-02    5.2608511E+06
   -0.44   400.000   -3.670E+01    5.2008982E+06   -1.8553339E+03    9.9135357E-03    5.2312036E+06    4.2918413E-02    5.2570897E+06
   -0.43   400.000   -3.717E+01    5.2069533E+06   -1.5077850E+03    5.5326170E-03    5.2332046E+06    4.2050173E-02    5.2565853E+06
   -0.42   400.000   -3.764E+01    5.2169625E+06   -1.7458383E+03    1.3203765E-03    5.2397582E+06    3.9730272E-02    5.2604251E+06
   -0.41   400.000   -3.810E+01    5.2305029E+06   -2.7635151E+03   -2.5309455E-03    5.2503075E+06    3.6124353E-02    5.2685292E+06
   -0.40   400.000   -3.856E+01    5.2454531E+06   -4.6370185E+03   -5.9557376E-03    5.2626456E+06    3.1434605E-02    5.2791482E+06
   -0.39   400.000   -3.902E+01    5.2581132E+06   -7.2456236E+03   -8.9987431E-03    5.2730030E+06    2.5941396E-02    5.2889034E+06
   -0.38   400.000   -3.947E+01    5.2639749E+06   -1.0250772E+04   -1.1769433E-02    5.2767718E+06    2.0022812E-02    5.2934657E+06
   -0.37   400.000   -3.992E+01    5.2589647E+06   -1.3159096E+04   -1.4381853E-02    5.2697218E+06    1.4127899E-02    5.2887393E+06
   -0.36   400.000   -4.036E+01    5.2407940E+06   -1.5451012E+04   -1.6898919E-02    5.2493562E+06    8.6992553E-03    5.2721992E+06
   -0.35   400.000   -4.080E+01    5.2099183E+06   -1.6716743E+04   -1.9302545E-02    5.2159140E+06    4.0690356E-03    5.2438976E+06
   -0.34   400.000   -4.123E+01    5.1696768E+06   -1.6739561E+04   -2.1502427E-02    5.1725754E+06    3.7487604E-04    5.2067039E+06
   -0.33   400.000   -4.165E+01    5.1255188E+06   -1.5504806E+04   -2.3376471E-02    5.1247552E+06   -2.4604942E-03    5.1656539E+06
   -0.32   400.000   -4.207E+01    5.0836561E+06   -1.3159721E+04   -2.4820230E-02    5.0787917E+06   -4.6728269E-03    5.1266892E+06
   -0.31   400.000   -4.249E+01    5.0496786E+06   -9.9657854E+03   -2.5783284E-02    5.0405515E+06   -6.5491014E-03    5.0952861E+06
   -0.30   400.000   -4.290E+01    5.0275158E+06   -6.2648111E+03   -2.6281401E-02    5.0143443E+06   -8.3189719E-03    5.0753673E+06
   -0.29   400.000   -4.331E+01    5.0188621E+06   -2.4483469E+03   -2.6383915E-02    5.0022862E+06   -1.0092316E-02    5.0686703E+06
   -0.28   400.000   -4.371E+01    5.0230662E+06    1.0918481E+03   -2.6185280E-02    5.0041250E+06   -1.1867108E-02    5.0746057E+06
   -0.27   400.000   -4.412E+01    5.0375033E+06    4.0371567E+03   -2.5778664E-02    5.0175384E+06   -1.3598132E-02    5.0906152E+06
   -0.26   400.000   -4.452E+01    5.0584080E+06    6.2148536E+03   -2.5248728E-02    5.0388850E+06   -1.5285805E-02    5.1129743E+06
   -0.25   400.000   -4.492E+01    5.0819870E+06    7.6309879E+03   -2.4683164E-02    5.0642576E+06   -1.7032425E-02    5.1378559E+06
   -0.24   400.000   -4.532E+01    5.1054681E+06    8.4384752E+03   -2.4181712E-02    5.0905395E+06   -1.9033102E-02    5.1623445E+06
   -0.23   400.000   -4.572E+01    5.1277110E+06    8.8517411E+03   -2.3841570E-02    5.1161108E+06   -2.1511297E-02    5.1850676E+06
   -0.22   400.000   -4.612E+01    5.1491421E+06    9.0524520E+03   -2.3723516E-02    5.1409282E+06   -2.4642568E-02    5.2062108E+06
   -0.21   400.000   -4.652E+01    5.1710344E+06    9.1358574E+03   -2.3827442E-02    5.1659316E+06   -2.8508062E-02    5.2269019E+06
   -0.20   400.000   -4.693E+01    5.1944122E+06    9.1187428E+03   -2.4103170E-02    5.1920074E+06   -3.3087196E-02    5.2481928E+06
   -0.19   400.000   -4.734E+01    5.2189937E+06    8.9885190E+03   -2.4495793E-02    5.2189144E+06   -3.8269428E-02    5.2700096E+06
   -0.18   400.000   -4.775E+01    5.2425416E+06    8.7496848E+03   -2.4999513E-02    5.2445696E+06   -4.3863389E-02    5.2904424E+06
   -0.17   400.000   -4.817E+01    5.2608577E+06    8.4343854E+03   -2.5688023E-02    5.2649605E+06   -4.9601779E-02    5.3056418E+06
   -0.16   400.000   -4.860E+01    5.2684743E+06    8.0756309E+03   -2.6702026E-02    5.2747596E+06   -5.5155935E-02    5.3104334E+06
   -0.15   400.000   -4.903E+01    5.2598840E+06    7.6688175E+03   -2.8195840E-02    5.2685003E+06   -6.0170072E-02    5.2995159E+06
   -0.14   400.000   -4.947E+01    5.2309288E+06    7.1525483E+03   -3.0265325E-02    5.2419594E+06   -6.4311198E-02    5.2688491E+06
   -0.13   400.000   -4.992E+01    5.1798604E+06    6.4240882E+03   -3.2889352E-02    5.1932608E+06   -6.7323166E-02    5.2167070E+06
   -0.12   400.000   -5.037E+01    5.1076744E+06    5.3814799E+03   -3.5910531E-02    5.1232826E+06   -6.9074824E-02    5.1439970E+06
   -0.11   400.000   -5.083E+01    5.0176498E+06    3.9700568E+03   -3.9060834E-02    5.0352489E+06   -6.9592954E-02    5.0538077E+06
   -0.10   400.000   -5.129E+01    4.9144287E+06    2.2137412E+03   -4.2017093E-02    4.9338121E+06   -6.9066487E-02    4.9505509E+06
   -0.09   400.000   -5.176E+01    4.8032012E+06    2.2387593E+02   -4.4462472E-02    4.8242008E+06   -6.7808948E-02    4.8392393E+06
   -0.08   400.000   -5.225E+01    4.6893980E+06   -1.8127878E+03   -4.6134566E-02    4.7118721E+06   -6.6181318E-02    4.7252464E+06
   -0.07   400.000   -5.274E+01    4.5788069E+06   -3.6637319E+03   -4.6850000E-02    4.6026119E+06   -6.4499566E-02    4.6144213E+06
   -0.06   400.000   -5.325E+01    4.4776085E+06   -5.0934220E+03   -4.6502680E-02    4.5025780E+06   -6.2958922E-02    4.5130638E+06
   -0.05   400.000   -5.377E+01    4.3919140E+06   -5.9090290E+03   -4.5040470E-02    4.4178516E+06   -6.1592714E-02    4.4273835E+06
   -0.04   400.000   -5.431E+01    4.3269051E+06   -5.9946090E+03   -4.2435732E-02    4.3535817E+06   -6.0264374E-02    4.3625862E+06
   -0.03   400.000   -5.486E+01    4.2860768E+06   -5.3230563E+03   -3.8671468E-02    4.3132287E+06   -5.8686873E-02    4.3221018E+06
   -0.02   400.000   -5.543E+01    4.2709593E+06   -3.9453355E+03   -3.3755846E-02    4.2982898E+06   -5.6471211E-02    4.3073223E+06
   -0.01   400.000   -5.601E+01    4.2812569E+06   -1.9658997E+03   -2.7756958E-02    4.3084456E+06   -5.3205802E-02    4.3177733E+06
    0.00   400.000   -5.660E+01    4.3151095E+06    4.8266498E+02   -2.0833811E-02    4.3418254E+06   -4.8554590E-02    4.3514097E+06
    0.01   400.000   -5.721E+01    4.3693098E+06    3.2548736E+03   -1.3240448E-02    4.3952170E+06   -4.2346109E-02    4.4048598E+06
    0.02   400.000   -5.783E+01    4.4395245E+06    6.1943273E+03   -5.2945550E-03    4.4642769E+06   -3.4624139E-02    4.4736636E+06
    0.03   400.000   -5.846E+01    4.5205841E+06    9.1295041E+03    2.6799542E-03    4.5438197E+06   -2.5646246E-02    4.5525745E+06
    0.04   400.000   -5.909E+01    4.6067833E+06    1.1876999E+04    1.0411995E-02    4.6281385E+06   -1.5838600E-02    4.6358701E+06
    0.05   400.000   -5.973E+01    4.6920962E+06    1.4263050E+04    1.7714209E-02    4.7112491E+06   -5.7299207E-03    4.7175789E+06
    0.06   400.000   -6.036E+01    4.7703310E+06    1.6160964E+04    2.4465758E-02    4.7870544E+06    4.1136359E-03    4.7916383E+06
    0.07   400.000   -6.100E+01    4.8353560E+06    1.7526148E+04    3.0551567E-02    4.8495494E+06    1.3143137E-02    4.8521140E+06
    0.08   400.000   -6.163E+01    4.8815137E+06    1.8405318E+04    3.5789636E-02    4.8931960E+06    2.0873554E-02    4.8935969E+06
    0.09   400.000   -6.227E+01    4.9042475E+06    1.8908699E+04    3.9889617E-02    4.9135234E+06    2.6927293E-02    4.9118018E+06
    0.10   400.000   -6.290E+01    4.9008935E+06    1.9155200E+04    4.2471142E-02    4.9079235E+06    3.1073223E-02    4.9043175E+06
    0.11   400.000   -6.353E+01    4.8715139E+06    1.9215741E+04    4.3138651E-02    4.8765103E+06    3.3252324E-02    4.8713883E+06
    0.12   400.000   -6.415E+01    4.8195148E+06    1.9081760E+04    4.1583104E-02    4.8227608E+06    3.3577868E-02    4.8164866E+06
    0.13   400.000   -6.478E+01    4.7516516E+06    1.8675601E+04    3.7675220E-02    4.7535280E+06    3.2301263E-02    4.7463053E+06
    0.14   400.000   -6.541E+01    4.6771100E+06    1.7900783E+04    3.1525745E-02    4.6781040E+06    2.9747426E-02    4.6698676E+06
    0.15   400.000   -6.605E+01    4.6057507E+06    1.6708944E+04    2.3502035E-02    4.6064261E+06    2.6243271E-02    4.5968250E+06
    0.16   400.000   -6.670E+01    4.5460936E+06    1.5146954E+04    1.4199107E-02    4.5470115E+06    2.2074092E-02    4.5354941E+06
    0.17   400.000   -6.736E+01    4.5038183E+06    1.3353109E+04    4.3673418E-03    4.5054250E+06    1.7487306E-02    4.4913947E+06
    0.18   400.000   -6.803E+01    4.4813092E+06    1.1497446E+04   -5.1987247E-03    4.4838397E+06    1.2726689E-02    4.4668286E+06
    0.19   400.000   -6.871E+01    4.4782825E+06    9.6957553E+03   -1.3800180E-02    4.4817327E+06    8.0544525E-03    4.4615376E+06
    0.20   400.000   -6.940E+01    4.4930811E+06    7.9473105E+03   -2.0976617E-02    4.4972828E+06    3.7304257E-03    4.4740258E+06
    0.21   400.000   -7.011E+01    4.5240279E+06    6.1364470E+03   -2.6606417E-02    4.5288089E+06   -4.2665603E-05    4.5029130E+06
    0.22   400.000   -7.083E+01    4.5702810E+06    4.1023644E+03   -3.0912578E-02    4.5756528E+06   -3.1689753E-03    4.5477523E+06
    0.23   400.000   -7.155E+01    4.6318921E+06    1.7426654E+03   -3.4348936E-02    4.6381971E+06   -5.6707204E-03    4.6090159E+06
    0.24   400.000   -7.228E+01    4.7090961E+06   -9.0224395E+02   -3.7395897E-02    4.7170657E+06   -7.6555455E-03    4.6872939E+06
    0.25   400.000   -7.302E+01    4.8011559E+06   -3.6260740E+03   -4.0344442E-02    4.8118602E+06   -9.2578392E-03    4.7820444E+06
    0.26   400.000   -7.377E+01    4.9052678E+06   -6.1061074E+03   -4.3158992E-02    4.9199645E+06   -1.0576705E-02    4.8904128E+06
    0.27   400.000   -7.451E+01    5.0160533E+06   -8.0027921E+03   -4.5474945E-02    5.0359618E+06   -1.1628053E-02    5.0066714E+06
    0.28   400.000   -7.527E+01    5.1259899E+06   -9.0671776E+03   -4.6725295E-02    5.1520374E+06   -1.2323574E-02    5.1226684E+06
    0.29   400.000   -7.603E+01    5.2267770E+06   -9.2156767E+03   -4.6337103E-02    5.2593789E+06   -1.2486664E-02    5.2293143E+06
    0.30   400.000   -7.679E+01    5.3112077E+06   -8.5505674E+03   -4.3920723E-02    5.3501450E+06   -1.1908469E-02    5.3186604E+06
    0.31   400.000   -7.756E+01    5.3748205E+06   -7.3268137E+03   -3.9394829E-02    5.4192514E+06   -1.0431361E-02    5.3857759E+06
    0.32   400.000   -7.833E+01    5.4166402E+06   -5.8799057E+03   -3.3025278E-02    5.4652462E+06   -8.0280541E-03    5.4296483E+06
    0.33   400.000   -7.911E+01    5.4387626E+06   -4.5363694E+03   -2.5380703E-02    5.4899923E+06   -4.8385041E-03    5.4527956E+06
    0.34   400.000   -7.989E+01    5.4451387E+06   -3.5347465E+03   -1.7219476E-02    5.4974861E+06   -1.1441373E-03    5.4599294E+06
    0.35   400.000   -8.067E+01    5.4402780E+06   -2.9870250E+03   -9.3324519E-03    5.4925185E+06    2.7096195E-03    5.4564203E+06
    0.36   400.000   -8.145E+01    5.4284699E+06   -2.8971184E+03   -2.3775019E-03    5.4797902E+06    6.4099931E-03    5.4472499E+06
    0.37   400.000   -8.223E+01    5.4136415E+06   -3.2236135E+03    3.2532743E-03    5.4636400E+06    9.7621167E-03    5.4366761E+06
    0.38   400.000   -8.301E+01    5.3995267E+06   -3.9477367E+03    7.5006002E-03    5.4481028E+06    1.2748148E-02    5.4283589E+06
    0.39   400.000   -8.379E+01    5.3897183E+06   -5.1053342E+03    1.0624128E-02    5.4368998E+06    1.5555856E-02    5.4255049E+06
    0.40   400.000   -8.456E+01    5.3874010E+06   -6.7658814E+03    1.3114265E-02    5.4331591E+06    1.8570370E-02    5.4307411E+06
    0.41   400.000   -8.534E+01    5.3948318E+06   -8.9744545E+03    1.5555603E-02    5.4389237E+06    2.2319098E-02    5.4456968E+06
    0.42   400.000   -8.613E+01    5.4127728E+06   -1.1692804E+04    1.8477748E-02    5.4546473E+06    2.7366204E-02    5.4704752E+06
    0.43   400.000   -8.692E+01    5.4401206E+06   -1.4773728E+04    2.2228030E-02    5.4789200E+06    3.4169339E-02    5.5032989E+06
    0.44   400.000   -8.772E+01    5.4739907E+06   -1.7982865E+04    2.6891809E-02    5.5086657E+06    4.2929191E-02    5.5406400E+06
    0.45   400.000   -8.853E+01    5.5104030E+06   -2.1054271E+04    3.2274616E-02    5.5399176E+06    5.3474971E-02    5.5780004E+06
    0.46   400.000   -8.936E+01    5.5454117E+06   -2.3745262E+04    3.7947927E-02    5.5689675E+06    6.5230046E-02    5.6111546E+06
    0.47   400.000   -9.019E+01    5.5761779E+06   -2.5857244E+04    4.3345444E-02    5.5933709E+06    7.7283566E-02    5.6372971E+06
    0.48   400.000   -9.104E+01    5.6014363E+06   -2.7215126E+04    4.7880112E-02    5.6122903E+06    8.8555526E-02    5.6554991E+06
    0.49   400.000   -9.189E+01    5.6211622E+06   -2.7631501E+04    5.1043466E-02    5.6260547E+06    9.8002059E-02    5.6662849E+06
    0.50   400.000   -9.276E+01    5.6357581E+06   -2.6898771E+04    5.2461651E-02    5.6353069E+06    1.0479224E-01    5.6706930E+06
    0.51   400.000   -9.365E+01    5.6453230E+06   -2.4838648E+04    5.1912370E-02    5.6403038E+06    1.0840830E-01    5.6694491E+06
    0.52   400.000   -9.454E+01    5.6493719E+06   -2.1398892E+04    4.9328458E-02    5.6406779E+06    1.0866040E-01    5.6626388E+06
    0.53   400.000   -9.545E+01    5.6469309E+06   -1.6746234E+04    4.4807847E-02    5.6355364E+06    1.0563675E-01    5.6497868E+06
    0.54   400.000   -9.637E+01    5.6366645E+06   -1.1294014E+04    3.8627498E-02    5.6235430E+06    9.9619851E-02    5.6299576E+06
    0.55   400.000   -9.730E+01    5.6168037E+06   -5.6362243E+03    3.1245579E-02    5.6028044E+06    9.0998650E-02    5.6016494E+06
    0.56   400.000   -9.824E+01    5.5850229E+06   -4.1315498E+02    2.3279734E-02    5.5707570E+06    8.0204718E-02    5.5626540E+06
    0.57   400.000   -9.919E+01    5.5386536E+06    3.8342756E+03    1.5458177E-02    5.5244497E+06    6.7692311E-02    5.5103016E+06
    0.58   400.000   -1.001E+02    5.4754804E+06    6.7726012E+03    8.5439928E-03    5.4614275E+06    5.3960198E-02    5.4423249E+06
    0.59   400.000   -1.011E+02    5.3949186E+06    8.3249186E+03    3.2343957E-03    5.3809628E+06    3.9585034E-02    5.3580982E+06
    0.60   400.000   -1.021E+02    5.2989816E+06    8.6589074E+03    4.3296689E-05    5.2850265E+06    2.5225523E-02    5.2596238E+06
    0.61   400.000   -1.030E+02    5.1924307E+06    8.1202824E+03   -8.1279231E-04    5.1784076E+06    1.1576980E-02    5.1516488E+06
    0.62   400.000   -1.040E+02    5.0818541E+06    7.1289642E+03    5.0312430E-04    5.0677588E+06   -7.0918983E-04    5.0406910E+06
    0.63   400.000   -1.049E+02    4.9739212E+06    6.0691001E+03    3.4256746E-03    4.9598309E+06   -1.1107380E-02    4.9332651E+06
    0.64   400.000   -1.058E+02    4.8734451E+06    5.2090707E+03    7.0404181E-03    4.8595246E+06   -1.9273556E-02    4.8339691E+06
    0.65   400.000   -1.068E+02    4.7819977E+06    4.6754579E+03    1.0215667E-02    4.7684980E+06   -2.5064477E-02    4.7441636E+06
    0.66   400.000   -1.077E+02    4.6976265E+06    4.4793183E+03    1.1798428E-02    4.6848658E+06   -2.8522186E-02    4.6617554E+06
    0.67   400.000   -1.086E+02    4.6157722E+06    4.5680633E+03    1.0840469E-02    4.6040870E+06   -2.9831712E-02    4.5821424E+06
    0.68   400.000   -1.095E+02    4.5309825E+06    4.8687776E+03    6.8019646E-03    4.5206435E+06   -2.9265576E-02    4.4998941E+06
    0.69   400.000   -1.103E+02    4.4386966E+06    5.3046269E+03   -3.2620789E-04    4.4298001E+06   -2.7135314E-02    4.4104592E+06
    0.70   400.000   -1.112E+02    4.3364060E+06    5.7913898E+03   -1.0022943E-02    4.3287705E+06   -2.3771353E-02    4.3112530E+06
    0.71   400.000   -1.120E+02    4.2238594E+06    6.2344402E+03   -2.1360856E-02    4.2169699E+06   -1.9538707E-02    4.2018380E+06
    0.72   400.000   -1.129E+02    4.1024572E+06    6.5393221E+03   -3.3209148E-02    4.0954969E+06   -1.4867955E-02    4.0833600E+06
    0.73   400.000   -1.137E+02    3.9743150E+06    6.6329747E+03   -4.4445890E-02    3.9662997E+06   -1.0258976E-02    3.9576883E+06
    0.74   400.000   -1.145E+02    3.8414996E+06    6.4838820E+03   -5.4118115E-02    3.8314907E+06   -6.2234439E-03    3.8267209E+06
    0.75   400.000   -1.153E+02    3.7057171E+06    6.1111656E+03   -6.1521814E-02    3.6930519E+06   -3.1734734E-03    3.6921046E+06
    0.76   400.000   -1.160E+02    3.5684360E+06    5.5777594E+03   -6.6213858E-02    3.5528932E+06   -1.3090456E-03    3.5553451E+06
    0.77   400.000   -1.167E+02    3.4312182E+06    4.9682279E+03   -6.7991332E-02    3.4130622E+06   -5.6989886E-04    3.4180952E+06
    0.78   400.000   -1.174E+02    3.2959945E+06    4.3599018E+03   -6.6869838E-02    3.2758921E+06   -6.8544539E-04    3.2823781E+06
    0.79   400.000   -1.181E+02    3.1651217E+06    3.8029355E+03   -6.3069016E-02    3.1439836E+06   -1.2997496E-03    3.1506047E+06
    0.80   400.000   -1.187E+02    3.0412163E+06    3.3205534E+03   -5.6992148E-02    3.0200371E+06   -2.1070981E-03    3.0254006E+06
    0.81   400.000   -1.193E+02    2.9268732E+06    2.9242453E+03   -4.9182660E-02    2.9066211E+06   -2.9353432E-03    2.9093559E+06
    0.82   400.000   -1.199E+02    2.8243989E+06    2.6247200E+03   -4.0253152E-02    2.8059628E+06   -3.7533977E-03    2.8048132E+06
    0.83   400.000   -1.204E+02    2.7356202E+06    2.4234024E+03   -3.0799605E-02    2.7197836E+06   -4.6231843E-03    2.7137191E+06
    0.84   400.000   -1.210E+02    2.6617572E+06    2.2891882E+03   -2.1322763E-02    2.6491654E+06   -5.6350529E-03    2.6375027E+06
    0.85   400.000   -1.215E+02    2.6033675E+06    2.1424695E+03   -1.2176287E-02    2.5944737E+06   -6.8551881E-03    2.5769817E+06
    0.86   400.000   -1.219E+02    2.5604490E+06    1.8662212E+03   -3.5512073E-03    2.5554535E+06   -8.2920109E-03    2.5324063E+06
    0.87   400.000   -1.224E+02    2.5328006E+06    1.3432226E+03    4.5048655E-03    2.5316120E+06   -9.8760578E-03    2.5037597E+06
    0.88   400.000   -1.228E+02    2.5205712E+06    4.9713944E+02    1.2043199E-02    2.5228113E+06   -1.1450646E-02    2.4912630E+06
    0.89   400.000   -1.233E+02    2.5246889E+06   -6.8804646E+02    1.9157409E-02    2.5297467E+06   -1.2780109E-02    2.4957843E+06
    0.90   400.000   -1.237E+02    2.5468064E+06   -2.1778911E+03    2.5928992E-02    2.5539245E+06   -1.3584844E-02    2.5187971E+06
    0.91   400.000   -1.241E+02    2.5886358E+06   -3.9110398E+03    3.2386809E-02    2.5970071E+06   -1.3602312E-02    2.5617599E+06
    0.92   400.000   -1.245E+02    2.6509149E+06   -5.8127659E+03    3.8487565E-02    2.6597647E+06   -1.2658283E-02    2.6251434E+06
    0.93   400.000   -1.249E+02    2.7324414E+06   -7.7875785E+03    4.4118084E-02    2.7410819E+06   -1.0725421E-02    2.7075184E+06
    0.94   400.000   -1.253E+02    2.8295485E+06   -9.7006085E+03    4.9115285E-02    2.8373967E+06   -7.9512522E-03    2.8050619E+06
    0.95   400.000   -1.258E+02    2.9362009E+06   -1.1368807E+04    5.3298061E-02    2.9427577E+06   -4.6488727E-03    2.9116638E+06
    0.96   400.000   -1.262E+02    3.0447235E+06   -1.2578662E+04    5.6505209E-02    3.0495161E+06   -1.2531979E-03    3.0196464E+06
    0.97   400.000   -1.266E+02    3.1470271E+06   -1.3131828E+04    5.8631820E-02    3.1495323E+06    1.7505080E-03    3.1209665E+06
    0.98   400.000   -1.271E+02    3.2360128E+06   -1.2902326E+04    5.9652992E-02    3.2355921E+06    3.9172079E-03    3.2085844E+06
    0.99   400.000   -1.275E+02    3.3066920E+06   -1.1878857E+04    5.9624111E-02    3.3025820E+06    4.9366385E-03    3.2775564E+06
    1.00   400.000   -1.280E+02    3.3566362E+06   -1.0171514E+04    5.8656734E-02    3.3480247E+06    4.7060128E-03    3.3254826E+06
    1.01   400.000   -1.285E+02    3.3857103E+06   -7.9815732E+03    5.6883668E-02    3.3718916E+06    3.3520897E-03    3.3522634E+06
    1.02   400.000   -1.289E+02    3.3954078E+06   -5.5511047E+03    5.4432816E-02    3.3759705E+06    1.1890816E-03    3.3594647E+06
    1.03   400.000   -1.294E+02    3.3882209E+06   -3.1128503E+03    5.1419531E-02    3.3631957E+06   -1.3732344E-03    3.3496964E+06
    1.04   400.000   -1.298E+02    3.3672823E+06   -8.5263863E+02    4.7951308E-02    3.3371945E+06   -3.9344505E-03    3.3262283E+06
    1.05   400.000   -1.303E+02    3.3362454E+06    1.1126905E+03    4.4131911E-02    3.3020513E+06   -6.1819860E-03    3.2928183E+06
    1.06   400.000   -1.308E+02    3.2992356E+06    2.7434380E+03    4.0057761E-02    3.2621629E+06   -7.9209039E-03    3.2536178E+06
    1.07   400.000   -1.312E+02    3.2607415E+06    4.0732362E+03    3.5808806E-02    3.2220840E+06   -9.0595899E-03    3.2130504E+06
    1.08   400.000   -1.317E+02    3.2254037E+06    5.1942768E+03    3.1441202E-02    3.1863386E+06   -9.5764208E-03    3.1756402E+06
    1.09   400.000   -1.322E+02    3.1977184E+06    6.2327128E+03    2.6988978E-02    3.1592055E+06   -9.4953477E-03    3.1457888E+06
    1.10   400.000   -1.327E+02    3.1816686E+06    7.3168336E+03    2.2477799E-02    3.1444559E+06   -8.8831378E-03    3.1274844E+06
    1.11   400.000   -1.331E+02    3.1802854E+06    8.5415193E+03    1.7946713E-02    3.1450004E+06   -7.8600790E-03    3.1239140E+06
    1.12   400.000   -1.336E+02    3.1951769E+06    9.9323428E+03    1.3466382E-02    3.1624432E+06   -6.6039234E-03    3.1370028E+06
    1.13   400.000   -1.341E+02    3.2261459E+06    1.1414840E+04    9.1409694E-03    3.1966586E+06   -5.3297880E-03    3.1669959E+06
    1.14   400.000   -1.347E+02    3.2710723E+06    1.2801990E+04    5.0894809E-03    3.2455901E+06   -4.2424622E-03    3.2122566E+06
    1.15   400.000   -1.352E+02    3.3261840E+06    1.3820325E+04    1.4163541E-03    3.3054367E+06   -3.4744646E-03    3.2694078E+06
    1.16   400.000   -1.358E+02    3.3866835E+06    1.4188094E+04   -1.8101469E-03    3.3712341E+06   -3.0365690E-03    3.3338118E+06
    1.17   400.000   -1.363E+02    3.4475295E+06    1.3729296E+04   -4.5569800E-03    3.4376496E+06   -2.8096246E-03    3.4002385E+06
    1.18   400.000   -1.369E+02    3.5040970E+06    1.2470829E+04   -6.8029251E-03    3.4997005E+06   -2.5908647E-03    3.4635097E+06
    1.19   400.000   -1.375E+02    3.5525236E+06    1.0660931E+04   -8.5095011E-03    3.5531707E+06   -2.1794723E-03    3.5189626E+06
    1.20   400.000   -1.382E+02    3.5897804E+06    8.6851850E+03   -9.6093862E-03    3.5947240E+06   -1.4626302E-03    3.5627400E+06
    1.21   400.000   -1.388E+02    3.6136980E+06    6.9189406E+03   -1.0025185E-02    3.6219385E+06   -4.6078178E-04    3.5920530E+06
    1.22   400.000   -1.395E+02    3.6231525E+06    5.5943823E+03   -9.7109240E-03    3.6334902E+06    6.8909435E-04    3.6055148E+06
    1.23   400.000   -1.402E+02    3.6183351E+06    4.7479543E+03   -8.6939460E-03    3.6294466E+06    1.8023292E-03    3.6034133E+06
    1.24   400.000   -1.409E+02    3.6007918E+06    4.2616107E+03   -7.0957639E-03    3.6113547E+06    2.7314860E-03    3.5876231E+06
    1.25   400.000   -1.416E+02    3.5729832E+06    3.9577017E+03   -5.1220142E-03    3.5818461E+06    3.4231009E-03    3.5609944E+06
    1.26   400.000   -1.424E+02    3.5374747E+06    3.6875633E+03   -3.0231066E-03    3.5438373E+06    3.9165707E-03    3.5264178E+06
    1.27   400.000   -1.431E+02    3.4961852E+06    3.3754684E+03   -1.0343498E-03    3.4997329E+06    4.2861621E-03    3.4860221E+06
    1.28   400.000   -1.439E+02    3.4501023E+06    3.0179565E+03    6.8918407E-04    3.4510420E+06    4.5580465E-03    3.4408884E+06
    1.29   400.000   -1.448E+02    3.3995417E+06    2.6611154E+03    2.1206330E-03    3.3985087E+06    4.6487555E-03    3.3913183E+06
    1.30   400.000   -1.456E+02    3.3446761E+06    2.3746689E+03    3.3680079E-03    3.3425335E+06    4.3612050E-03    3.3373827E+06
    1.31   400.000   -1.465E+02    3.2859588E+06    2.2276357E+03    4.6272893E-03    3.2835650E+06    3.4454684E-03    3.2793933E+06
    1.32   400.000   -1.475E+02    3.2242355E+06    2.2649894E+03    6.0950665E-03    3.2222742E+06    1.7010780E-03    3.2180899E+06
    1.33   400.000   -1.485E+02    3.1605758E+06    2.4900042E+03    7.8791411E-03    3.1595014E+06   -9.1832802E-04    3.1545381E+06
    1.34   400.000   -1.496E+02    3.0959688E+06    2.8611247E+03    9.9511833E-03    3.0960481E+06   -4.2352596E-03    3.0898369E+06
    1.35   400.000   -1.507E+02    3.0310059E+06    3.3074744E+03    1.2163145E-02    3.0323878E+06   -7.8383918E-03    3.0247513E+06
    1.36   400.000   -1.519E+02    2.9656451E+06    3.7572071E+03    1.4311932E-02    2.9683932E+06   -1.1142316E-02    2.9593974E+06
    1.37   400.000   -1.532E+02    2.8991843E+06    4.1658776E+03    1.6210591E-02    2.9032549E+06   -1.3511050E-02    2.8931541E+06
    1.38   400.000   -1.545E+02    2.8305769E+06    4.5321358E+03    1.7727215E-02    2.8357677E+06   -1.4419853E-02    2.8249632E+06
    1.39   400.000   -1.558E+02    2.7590803E+06    4.8942422E+03    1.8781540E-02    2.7649940E+06   -1.3609182E-02    2.7539995E+06
    1.40   400.000   -1.573E+02    2.6849818E+06    5.3090150E+03    1.9320836E-02    2.6910351E+06   -1.1174643E-02    2.6804356E+06
    1.41   400.000   -1.587E+02    2.6100156E+06    5.8211559E+03    1.9306785E-02    2.6154992E+06   -7.5514453E-03    2.6058923E+06
    1.42   400.000   -1.602E+02    2.5372199E+06    6.4345632E+03    1.8729572E-02    2.5413961E+06   -3.3916390E-03    2.5333121E+06
    1.43   400.000   -1.617E+02    2.4702912E+06    7.0979545E+03    1.7640854E-02    2.4725047E+06    6.2126641E-04    2.4663134E+06
    1.44   400.000   -1.632E+02    2.4127377E+06    7.7125538E+03    1.6182467E-02    2.4125102E+06    3.9484067E-03    2.4083341E+06
    1.45   400.000   -1.647E+02    2.3671755E+06    8.1589466E+03    1.4589080E-02    2.3642544E+06    6.2981006E-03    2.3619191E+06
    1.46   400.000   -1.662E+02    2.3349818E+06    8.3296925E+03    1.3156047E-02    2.3293297E+06    7.6286345E-03    2.3283826E+06
    1.47   400.000   -1.676E+02    2.3163410E+06    8.1530978E+03    1.2180178E-02    2.3080784E+06    8.0719619E-03    2.3078868E+06
    1.48   400.000   -1.690E+02    2.3105597E+06    7.6028430E+03    1.1893413E-02    2.2998966E+06    7.8290911E-03    2.2998022E+06
    1.49   400.000   -1.704E+02    2.3164290E+06    6.6983219E+03    1.2412876E-02    2.3036245E+06    7.0874501E-03    2.3031029E+06
    1.50   400.000   -1.717E+02    2.3324210E+06    5.5019347E+03    1.3724040E-02    2.3177891E+06    5.9839118E-03    2.3165556E+06
    1.51   400.000   -1.730E+02    2.3566410E+06    4.1131118E+03    1.5698699E-02    2.3405954E+06    4.6033032E-03    2.3386178E+06
    1.52   400.000   -1.742E+02    2.3866685E+06    2.6541208E+03    1.8133355E-02    2.3697767E+06    2.9838889E-03    2.3671878E+06
    1.53   400.000   -1.753E+02    2.4195581E+06    1.2463045E+03    2.0788248E-02    2.4025663E+06    1.1103501E-03    2.3995064E+06
    1.54   400.000   -1.764E+02    2.4522153E+06   -1.6569418E+01    2.3418656E-02    2.4360103E+06   -1.0990530E-03    2.4324610E+06
    1.55   400.000   -1.774E+02    2.4821183E+06   -1.0872604E+03    2.5806486E-02    2.4676139E+06   -3.7869964E-03    2.4632964E+06
    1.56   400.000   -1.783E+02    2.5080886E+06   -1.9683072E+03    2.7800338E-02    2.4960527E+06   -7.1178061E-03    2.4904490E+06
    1.57   400.000   -1.793E+02    2.5307042E+06   -2.6968790E+03    2.9351625E-02    2.5215779E+06   -1.1214687E-02    2.5140781E+06
    1.58   400.000   -1.801E+02    2.5520805E+06   -3.3146102E+03    3.0517602E-02    2.5458536E+06   -1.6101231E-02    2.5359701E+06
    1.59   400.000   -1.810E+02    2.5750486E+06   -3.8325589E+03    3.1414576E-02    2.5712421E+06   -2.1669291E-02    2.5587977E+06
    1.60   400.000   -1.818E+02    2.6020567E+06   -4.2053729E+03    3.2140007E-02    2.5998273E+06   -2.7675811E-02    2.5850345E+06
    1.61   400.000   -1.826E+02    2.6342383E+06   -4.3267771E+03    3.2708019E-02    2.6325777E+06   -3.3758181E-02    2.6159895E+06
    1.62   400.000   -1.834E+02    2.6709799E+06   -4.0525226E+03    3.3036096E-02    2.6689537E+06   -3.9461435E-02    2.6513211E+06
    1.63   400.000   -1.841E+02    2.7100920E+06   -3.2487162E+03    3.2988612E-02    2.7070477E+06   -4.4283145E-02    2.6891533E+06
    1.64   400.000   -1.849E+02    2.7484643E+06   -1.8517080E+03    3.2450011E-02    2.7441492E+06   -4.7746223E-02    2.7266722E+06
    1.65   400.000   -1.856E+02    2.7829666E+06    8.5753290E+01    3.1387517E-02    2.7775275E+06   -4.9495954E-02    2.7609623E+06
    1.66   400.000   -1.863E+02    2.8113152E+06    2.3868950E+03    2.9874213E-02    2.8052006E+06   -4.9392913E-02    2.7898190E+06
    1.67   400.000   -1.871E+02    2.8326682E+06    4.7877910E+03    2.8066972E-02    2.8264831E+06   -4.7558669E-02    2.8123210E+06
    1.68   400.000   -1.878E+02    2.8478085E+06    6.9994881E+03    2.6154654E-02    2.8421706E+06   -4.4343316E-02    2.8290369E+06
    1.69   400.000   -1.885E+02    2.8589009E+06    8.7659707E+03    2.4301155E-02    2.8543228E+06   -4.0220859E-02    2.8418438E+06
    1.70   400.000   -1.892E+02    2.8689414E+06    9.9006621E+03    2.2605810E-02    2.8657428E+06   -3.5656710E-02    2.8534559E+06
    1.71   400.000   -1.899E+02    2.8810922E+06    1.0303617E+04    2.1093220E-02    2.8793417E+06   -3.1004424E-02    2.8668284E+06
    1.72   400.000   -1.906E+02    2.8980962E+06    9.9690709E+03    1.9729714E-02    2.8975870E+06   -2.6468804E-02    2.8846153E+06
    1.73   400.000   -1.913E+02    2.9219105E+06    8.9850662E+03    1.8452015E-02    2.9221718E+06   -2.2135836E-02    2.9088099E+06
    1.74   400.000   -1.920E+02    2.9536048E+06    7.5163417E+03    1.7192775E-02    2.9539491E+06   -1.8040302E-02    2.9406221E+06
    1.75   400.000   -1.927E+02    2.9934663E+06    5.7628120E+03    1.5895468E-02    2.9930698E+06   -1.4232874E-02    2.9805403E+06
    1.76   400.000   -1.933E+02    3.0411448E+06    3.9014859E+03    1.4517842E-02    3.0391566E+06   -1.0818432E-02    3.0284238E+06
    1.77   400.000   -1.940E+02    3.0956643E+06    2.0379670E+03    1.3024730E-02    3.0913337E+06   -7.9553692E-03    3.0834667E+06
    1.78   400.000   -1.947E+02    3.1552724E+06    1.9721077E+02    1.1373584E-02    3.1480774E+06   -5.8208888E-03    3.1440197E+06
    1.79   400.000   -1.954E+02    3.2173148E+06   -1.6368300E+03    9.5030251E-03    3.2070668E+06   -4.5570695E-03    3.2074545E+06
    1.80   400.000   -1.961E+02    3.2783939E+06   -3.4549997E+03    7.3387311E-03    3.2652892E+06   -4.2182984E-03    3.2703128E+06
    1.81   400.000   -1.968E+02    3.3349153E+06   -5.1722251E+03    4.8241472E-03    3.3195026E+06   -4.7408676E-03    3.3288228E+06
    1.82   400.000   -1.975E+02    3.3838715E+06   -6.6275907E+03    1.9685292E-03    3.3669176E+06   -5.9456288E-03    3.3796437E+06
    1.83   400.000   -1.982E+02    3.4235752E+06   -7.6424632E+03   -1.1074130E-03    3.4058426E+06   -7.5684042E-03    3.4205954E+06
    1.84   400.000   -1.989E+02    3.4540964E+06   -8.1098883E+03   -4.1495040E-03    3.4360903E+06   -9.3024680E-03    3.4511781E+06
    1.85   400.000   -1.996E+02    3.4772885E+06   -8.0660957E+03   -6.7842258E-03    3.4590681E+06   -1.0839886E-02    3.4727679E+06
    1.86   400.000   -2.004E+02    3.4964084E+06   -7.7005860E+03   -8.5694616E-03    3.4775458E+06   -1.1908324E-02    3.4884262E+06
    1.87   400.000   -2.011E+02    3.5154116E+06   -7.2963870E+03   -9.0742634E-03    3.4951174E+06   -1.2306293E-02    3.5023061E+06
    1.88   400.000   -2.018E+02    3.5380942E+06   -7.1329166E+03   -7.9771139E-03    3.5154420E+06   -1.1937875E-02    3.5187588E+06
    1.89   400.000   -2.025E+02    3.5673392E+06   -7.3997788E+03   -5.1685602E-03    3.5414857E+06   -1.0841666E-02    3.5414165E+06
    1.90   400.000   -2.033E+02    3.6047336E+06   -8.1542300E+03   -8.3428446E-04    3.5750618E+06   -9.2043100E-03    3.5726085E+06
    1.91   400.000   -2.040E+02    3.6506685E+06   -9.3279460E+03    4.5161827E-03    3.6168546E+06   -7.3482125E-03    3.6133234E+06
    1.92   400.000   -2.048E+02    3.7047773E+06   -1.0769452E+04    1.0106087E-02    3.6668281E+06   -5.6857598E-03    3.6636178E+06
    1.93   400.000   -2.055E+02    3.7663827E+06   -1.2300091E+04    1.5036383E-02    3.7246802E+06   -4.6416232E-03    3.7231099E+06
    1.94   400.000   -2.063E+02    3.8346472E+06   -1.3761353E+04    1.8482198E-02    3.7900016E+06   -4.5612681E-03    3.7911870E+06
    1.95   400.000   -2.070E+02    3.9083575E+06   -1.5040755E+04    1.9878949E-02    3.8620388E+06   -5.6374200E-03    3.8668069E+06
    1.96   400.000   -2.078E+02    3.9855502E+06   -1.6077624E+04    1.9040645E-02    3.9392552E+06   -7.8819687E-03    3.9480779E+06
    1.97   400.000   -2.086E+02    4.0633128E+06   -1.6857005E+04    1.6179827E-02    4.0190308E+06   -1.1147065E-02    4.0319617E+06
    1.98   400.000   -2.094E+02    4.1380179E+06   -1.7396411E+04    1.1831066E-02    4.0977877E+06   -1.5173773E-02    4.1144005E+06
    1.99   400.000   -2.102E+02    4.2060406E+06   -1.7726523E+04    6.7068141E-03    4.1716328E+06   -1.9640317E-02    4.1909924E+06
    2.00   400.000   -2.110E+02    4.2647650E+06   -1.7869695E+04    1.5297859E-03    4.2373682E+06   -2.4197014E-02    4.2580894E+06
    2.01   400.000   -2.118E+02    4.3135220E+06   -1.7823139E+04   -3.1141448E-03    4.2935267E+06   -2.8494488E-02    4.3139633E+06
    2.02   400.000   -2.126E+02    4.3540945E+06   -1.7551818E+04   -6.8734926E-03    4.3410525E+06   -3.2218140E-02    4.3595969E+06
    2.03   400.000   -2.134E+02    4.3906109E+06   -1.6992948E+04   -9.6695249E-03    4.3833940E+06   -3.5133139E-02    4.3987927E+06
    2.04   400.000   -2.142E+02    4.4289230E+06   -1.6072782E+04   -1.1678389E-02    4.4260402E+06   -3.7129999E-02    4.4376007E+06
    2.05   400.000   -2.150E+02    4.4757800E+06   -1.4734612E+04   -1.3265353E-02    4.4757560E+06   -3.8251603E-02    4.4833583E+06
    2.06   400.000   -2.158E+02    4.5381174E+06   -1.2973604E+04   -1.4885590E-02    4.5398154E+06   -3.8683516E-02    4.5437289E+06
    2.07   400.000   -2.166E+02    4.6225766E+06   -1.0871153E+04   -1.6973973E-02    4.6253806E+06   -3.8701424E-02    4.6259702E+06
    2.08   400.000   -2.175E+02    4.7351190E+06   -8.6187746E+03   -1.9848239E-02    4.7389520E+06   -3.8588257E-02    4.7364079E+06
    2.09   400.000   -2.183E+02    4.8804835E+06   -6.5179930E+03   -2.3641560E-02    4.8857052E+06   -3.8548627E-02    4.8799148E+06
    2.10   400.000   -2.191E+02    5.0613322E+06   -4.9419693E+03   -2.8269799E-02    5.0686019E+06   -3.8649730E-02    5.0592063E+06
    2.11   400.000   -2.199E+02    5.2771874E+06   -4.2545881E+03   -3.3434470E-02    5.2873685E+06   -3.8806251E-02    5.2739529E+06
    2.12   400.000   -2.207E+02    5.5235643E+06   -4.7043220E+03   -3.8662553E-02    5.5376963E+06   -3.8811904E-02    5.5200069E+06
    2.13   400.000   -2.215E+02    5.7918850E+06   -6.3312028E+03   -4.3381290E-02    5.8111781E+06   -3.8408196E-02    5.7892778E+06
    2.14   400.000   -2.223E+02    6.0705910E+06   -8.9285707E+03   -4.7018652E-02    6.0963621E+06   -3.7369904E-02    6.0706985E+06
    2.15   400.000   -2.231E+02    6.3472960E+06   -1.2080410E+04   -4.9113431E-02    6.3807939E+06   -3.5577240E-02    6.3521968E+06
    2.16   400.000   -2.239E+02    6.6111533E+06   -1.5261003E+04   -4.9415203E-02    6.6533017E+06   -3.3047183E-02    6.6229289E+06
    2.17   400.000   -2.247E+02    6.8543887E+06   -1.7956665E+04   -4.7951745E-02    6.9055374E+06   -2.9916153E-02    6.8747633E+06
    2.18   400.000   -2.255E+02    7.0724151E+06   -1.9763923E+04   -4.5041360E-02    7.1321960E+06   -2.6389927E-02    7.1024311E+06
    2.19   400.000   -2.263E+02    7.2627999E+06   -2.0435695E+04   -4.1236342E-02    7.3301341E+06   -2.2683717E-02    7.3025987E+06
    2.20   400.000   -2.271E+02    7.4239749E+06   -1.9876509E+04   -3.7205264E-02    7.4972265E+06   -1.8964332E-02    7.4727499E+06
    2.21   400.000   -2.279E+02    7.5545918E+06   -1.8112540E+04   -3.3588545E-02    7.6318333E+06   -1.5298394E-02    7.6107545E+06
    2.22   400.000   -2.287E+02    7.6539209E+06   -1.5267295E+04   -3.0876991E-02    7.7332522E+06   -1.1619377E-02    7.7154549E+06
    2.23   400.000   -2.295E+02    7.7230401E+06   -1.1556926E+04   -2.9352229E-02    7.8028917E+06   -7.7377911E-03    7.7879362E+06
    2.24   400.000   -2.303E+02    7.7661195E+06   -7.2939860E+03   -2.9094208E-02    7.8454728E+06   -3.4091827E-03    7.8327577E+06
    2.25   400.000   -2.310E+02    7.7910514E+06   -2.8746464E+03   -3.0027879E-02    7.8695252E+06    1.5573574E-03    7.8584265E+06
    2.26   400.000   -2.317E+02    7.8089870E+06    1.2682267E+03   -3.1973996E-02    7.8867401E+06    7.1975340E-03    7.8767188E+06
    2.27   400.000   -2.324E+02    7.8328320E+06    4.7407964E+03   -3.4688092E-02    7.9102482E+06    1.3348123E-02    7.9009375E+06
    2.28   400.000   -2.331E+02    7.8751734E+06    7.2648253E+03   -3.7892844E-02    7.9523544E+06    1.9685376E-02    7.9436369E+06
    2.29   400.000   -2.338E+02    7.9462724E+06    8.7208143E+03   -4.1311906E-02    8.0224858E+06    2.5827381E-02    8.0145645E+06
    2.30   400.000   -2.344E+02    8.0526407E+06    9.1398462E+03   -4.4701936E-02    8.1259686E+06    3.1448123E-02    8.1194204E+06
    2.31   400.000   -2.351E+02    8.1964202E+06    8.6550830E+03   -4.7871928E-02    8.2638191E+06    3.6345822E-02    8.2596020E+06
    2.32   400.000   -2.358E+02    8.3754820E+06    7.4447665E+03   -5.0683514E-02    8.4332837E+06    4.0436970E-02    8.4326490E+06
    2.33   400.000   -2.364E+02    8.5840060E+06    5.6974934E+03   -5.3036153E-02    8.6286763E+06    4.3692351E-02    8.6329505E+06
    2.34   400.000   -2.371E+02    8.8133343E+06    3.6087016E+03   -5.4847410E-02    8.8422074E+06    4.6062354E-02    8.8524706E+06
    2.35   400.000   -2.378E+02    9.0529946E+06    1.3901460E+03   -5.6038373E-02    9.0647626E+06    4.7438641E-02    9.0815195E+06
    2.36   400.000   -2.384E+02    9.2918328E+06   -7.3729684E+02   -5.6530988E-02    9.2867190E+06    4.7674174E-02    9.3096823E+06
    2.37   400.000   -2.391E+02    9.5191608E+06   -2.5821061E+03   -5.6260138E-02    9.4988259E+06    4.6651016E-02    9.5268929E+06
    2.38   400.000   -2.398E+02    9.7257747E+06   -4.0358547E+03   -5.5198523E-02    9.6930382E+06    4.4358638E-02    9.7244653E+06
    2.39   400.000   -2.405E+02    9.9046436E+06   -5.1049241E+03   -5.3386448E-02    9.8630817E+06    4.0935899E-02    9.8957932E+06
    2.40   400.000   -2.413E+02    1.0051042E+07   -5.8889261E+03   -5.0954663E-02    1.0004501E+07    3.6647172E-02    1.0036435E+07
    2.41   400.000   -2.420E+02    1.0161992E+07   -6.5044769E+03   -4.8129733E-02    1.0114058E+07    3.1803156E-02    1.0143459E+07
    2.42   400.000   -2.427E+02    1.0235159E+07   -6.9866185E+03   -4.5216750E-02    1.0188657E+07    2.6674523E-02    1.0214253E+07
    2.43   400.000   -2.435E+02    1.0267782E+07   -7.2172417E+03   -4.2559343E-02    1.0224382E+07    2.1451430E-02    1.0245455E+07
    2.44   400.000   -2.442E+02    1.0256390E+07   -6.9221441E+03   -4.0481570E-02    1.0216402E+07    1.6267745E-02    1.0232792E+07
    2.45   400.000   -2.449E+02    1.0197833E+07   -5.7497356E+03   -3.9223133E-02    1.0160255E+07    1.1262105E-02    1.0172341E+07
    2.46   400.000   -2.457E+02    1.0091489E+07   -3.4066153E+03   -3.8884975E-02    1.0054301E+07    6.6260645E-03    1.0062971E+07
    2.47   400.000   -2.464E+02    9.9417734E+06    2.0429887E+02   -3.9398670E-02    9.9024237E+06    2.6070851E-03    9.9089659E+06
    2.48   400.000   -2.471E+02    9.7596927E+06    4.9018552E+03   -4.0520788E-02    9.7156467E+06   -5.2842690E-04    9.7215208E+06
    2.49   400.000   -2.478E+02    9.5623352E+06    1.0235880E+04   -4.1846142E-02    9.5115627E+06   -2.5428643E-03    9.5180621E+06
    2.50   400.000   -2.485E+02    9.3700179E+06    1.5586098E+04   -4.2840325E-02    9.3113268E+06   -3.2626613E-03    9.3192458E+06
    2.51   400.000   -2.492E+02    9.2019646E+06    2.0319924E+04   -4.2901032E-02    9.1351676E+06   -2.5997272E-03    9.1446277E+06
    2.52   400.000   -2.498E+02    9.0722419E+06    2.3959956E+04   -4.1451278E-02    8.9981769E+06   -5.6976728E-04    9.0087160E+06
    2.53   400.000   -2.505E+02    8.9875799E+06    2.6302604E+04   -3.8046124E-02    8.9080134E+06    2.6905508E-03    8.9189086E+06
    2.54   400.000   -2.512E+02    8.9477069E+06    2.7440512E+04   -3.2459549E-02    8.8651264E+06    6.9214664E-03    8.8757971E+06
    2.55   400.000   -2.519E+02    8.9475877E+06    2.7685114E+04   -2.4726780E-02    8.8648721E+06    1.1768644E-02    8.8751673E+06
    2.56   400.000   -2.525E+02    8.9802267E+06    2.7440173E+04   -1.5142663E-02    8.9002032E+06    1.6839967E-02    8.9104383E+06
    2.57   400.000   -2.532E+02    9.0387911E+06    2.7097598E+04   -4.2340676E-03    8.9637603E+06    2.1766086E-02    8.9744957E+06
    2.58   400.000   -2.538E+02    9.1175260E+06    2.6995517E+04    7.2802865E-03    9.0488977E+06    2.6234123E-02    9.0605702E+06
    2.59   400.000   -2.545E+02    9.2117369E+06    2.7425101E+04    1.8546249E-02    9.1499030E+06    2.9980144E-02    9.1624917E+06
    2.60   400.000   -2.551E+02    9.3175309E+06    2.8640565E+04    2.8659139E-02    9.2619973E+06    3.2753286E-02    9.2748931E+06
    2.61   400.000   -2.558E+02    9.4318549E+06    3.0835681E+04    3.6779220E-02    9.3815390E+06    3.4284145E-02    9.3936907E+06
    2.62   400.000   -2.564E+02    9.5528417E+06    3.4086124E+04    4.2257724E-02    9.5064115E+06    3.4287686E-02    9.5166749E+06
    2.63   400.000   -2.570E+02    9.6800240E+06    3.8288418E+04    4.4735969E-02    9.6362116E+06    3.2507404E-02    9.6437126E+06
    2.64   400.000   -2.577E+02    9.8139531E+06    4.3131070E+04    4.4182642E-02    9.7718343E+06    2.8781449E-02    9.7761598E+06
    2.65   400.000   -2.583E+02    9.9551615E+06    4.8116429E+04    4.0859230E-02    9.9143829E+06    2.3103532E-02    9.9155359E+06
    2.66   400.000   -2.589E+02    1.0102894E+07    5.2633346E+04    3.5235160E-02    1.0063781E+07    1.5662559E-02    1.0061978E+07
    2.67   400.000   -2.595E+02    1.0254200E+07    5.6069210E+04    2.7890303E-02    1.0217668E+07    6.8562584E-03    1.0213122E+07
    2.68   400.000   -2.600E+02    1.0403740E+07    5.7937094E+04    1.9433671E-02    1.0370999E+07   -2.7277517E-03    1.0363781E+07
    2.69   400.000   -2.606E+02    1.0544279E+07    5.7978611E+04    1.0444493E-02    1.0516429E+07   -1.2375023E-02    1.0506416E+07
    2.70   400.000   -2.612E+02    1.0667579E+07    5.6204523E+04    1.4267217E-03    1.0645260E+07   -2.1351592E-02    1.0632130E+07
    2.71   400.000   -2.617E+02    1.0765333E+07    5.2863622E+04   -7.2281851E-03    1.0748589E+07   -2.9027621E-02    1.0731841E+07
    2.72   400.000   -2.622E+02    1.0829828E+07    4.8362147E+04   -1.5261696E-02    1.0818229E+07   -3.4970025E-02    1.0797243E+07
    2.73   400.000   -2.628E+02    1.0854173E+07    4.3162100E+04   -2.2538694E-02    1.0847123E+07   -3.8969643E-02    1.0821253E+07
    2.74   400.000   -2.633E+02    1.0832224E+07    3.7678752E+04   -2.9005665E-02    1.0829273E+07   -4.1007396E-02    1.0797913E+07
    2.75   400.000   -2.638E+02    1.0758627E+07    3.2204349E+04   -3.4629790E-02    1.0759609E+07   -4.1196933E-02    1.0722174E+07
    2.76   400.000   -2.642E+02    1.0629457E+07    2.6894808E+04   -3.9340980E-02    1.0634391E+07   -3.9743906E-02    1.0590192E+07
    2.77   400.000   -2.647E+02    1.0443634E+07    2.1832493E+04   -4.2999186E-02    1.0452461E+07   -3.6938031E-02    1.0400549E+07
    2.78   400.000   -2.652E+02    1.0204667E+07    1.7127503E+04   -4.5401271E-02    1.0216990E+07   -3.3164683E-02    1.0156048E+07
    2.79   400.000   -2.656E+02    9.9217799E+06    1.2989696E+04   -4.6324699E-02    9.9367482E+06   -2.8905417E-02    9.8651093E+06
    2.80   400.000   -2.660E+02    9.6095776E+06    9.7212423E+03   -4.5587240E-02    9.6259285E+06   -2.4699580E-02    9.5417383E+06
    2.81   400.000   -2.664E+02    9.2860609E+06    7.6298702E+03   -4.3099092E-02    9.3022613E+06   -2.1061305E-02    9.2037532E+06
    2.82   400.000   -2.669E+02    8.9696884E+06    6.9142984E+03   -3.8899240E-02    8.9841051E+06   -1.8376464E-02    8.8699044E+06
    2.83   400.000   -2.672E+02    8.6765374E+06    7.5933094E+03   -3.3181813E-02    8.6876173E+06   -1.6822809E-02    8.5569490E+06
    2.84   400.000   -2.676E+02    8.4183832E+06    9.5202851E+03   -2.6312818E-02    8.4248332E+06   -1.6349887E-02    8.2775131E+06
    2.85   400.000   -2.680E+02    8.2019327E+06    1.2465562E+04   -1.8822106E-02    8.2028657E+06   -1.6727077E-02    8.0390301E+06
    2.86   400.000   -2.684E+02    8.0289968E+06    1.6208345E+04   -1.1353708E-02    8.0239918E+06   -1.7635964E-02    7.8436598E+06
    2.87   400.000   -2.688E+02    7.8972556E+06    2.0583968E+04   -4.5760516E-03    7.8862983E+06   -1.8765500E-02    7.6890062E+06
    2.88   400.000   -2.691E+02    7.8013266E+06    2.5462518E+04    9.2455379E-04    7.7846366E+06   -1.9873823E-02    7.5694181E+06
    2.89   400.000   -2.695E+02    7.7338538E+06    3.0665841E+04    4.7358111E-03    7.7116499E+06   -2.0803841E-02    7.4774948E+06
    2.90   400.000   -2.699E+02    7.6863149E+06    3.5857323E+04    6.6742148E-03    7.6586022E+06   -2.1464775E-02    7.4052736E+06
    2.91   400.000   -2.702E+02    7.6494071E+06    4.0461187E+04    6.7972657E-03    7.6158846E+06   -2.1803784E-02    7.3447615E+06
    2.92   400.000   -2.706E+02    7.6132714E+06    4.3674473E+04    5.3809607E-03    7.5734217E+06   -2.1787523E-02    7.2879767E+06
    2.93   400.000   -2.710E+02    7.5680682E+06    4.4615821E+04    2.8725790E-03    7.5214209E+06   -2.1400453E-02    7.2270494E+06
    2.94   400.000   -2.713E+02    7.5051978E+06    4.2604994E+04   -1.7787738E-04    7.4516758E+06   -2.0653785E-02    7.1548271E+06
    2.95   400.000   -2.717E+02    7.4188880E+06    3.7486343E+04   -3.2091786E-03    7.3591057E+06   -1.9591769E-02    7.0659603E+06
    2.96   400.000   -2.721E+02    7.3074490E+06    2.9834425E+04   -5.7580249E-03    7.2428527E+06   -1.8283862E-02    6.9580217E+06
    2.97   400.000   -2.725E+02    7.1735909E+06    2.0890351E+04   -7.5621272E-03    7.1063854E+06   -1.6801621E-02    6.8321468E+06
    2.98   400.000   -2.729E+02    7.0237414E+06    1.2217627E+04   -8.6175239E-03    6.9566107E+06   -1.5190982E-02    6.6929788E+06
    2.99   400.000   -2.732E+02    6.8669069E+06    5.2489968E+03   -9.1564364E-03    6.8025979E+06   -1.3454430E-02    6.5481492E+06
    3.00   400.000   -2.736E+02    6.7137967E+06    9.5348022E+02   -9.5451659E-03    6.6546704E+06   -1.1551151E-02    6.4077269E+06
    3.01   400.000   -2.740E+02    6.5764381E+06   -2.6988926E+02   -1.0142022E-02    6.5240990E+06   -9.4133329E-03    6.2837496E+06
    3.02   400.000   -2.744E+02    6.4677728E+06    1.4680290E+03   -1.1173631E-02    6.4228515E+06   -6.9708344E-03    6.1894289E+06
    3.03   400.000   -2.748E+02    6.4004917E+06    5.6597921E+03   -1.2673474E-02    6.3626031E+06   -4.1764990E-03    6.1375294E+06
    3.04   400.000   -2.751E+02    6.3848947E+06    1.1516364E+04   -1.4494258E-02    6.3527551E+06   -1.0284854E-03    6.1379741E+06
    3.05   400.000   -2.755E+02    6.4263227E+06    1.8096245E+04   -1.6377329E-02    6.3980049E+06    2.4106226E-03    6.1953534E+06
    3.06   400.000   -2.759E+02    6.5230269E+06    2.4461618E+04   -1.8047362E-02    6.4963356E+06    6.0010406E-03    6.3071341E+06
    3.07   400.000   -2.763E+02    6.6651332E+06    2.9837889E+04   -1.9297875E-02    6.6380665E+06    9.5305389E-03    6.4630088E+06
    3.08   400.000   -2.766E+02    6.8350584E+06    3.3729583E+04   -2.0039774E-02    6.8062681E+06    1.2749981E-02    6.6455148E+06
    3.09   400.000   -2.770E+02    7.0095840E+06    3.5953173E+04   -2.0299911E-02    6.9786915E+06    1.5439142E-02    6.8320131E+06
    3.10   400.000   -2.774E+02    7.1635907E+06    3.6576808E+04   -2.0175860E-02    7.1312125E+06    1.7479145E-02    6.9980878E+06
    3.11   400.000   -2.777E+02    7.2749049E+06    3.5793078E+04   -1.9769984E-02    7.2423350E+06    1.8895148E-02    7.1220016E+06
    3.12   400.000   -2.781E+02    7.3289856E+06    3.3778283E+04   -1.9133180E-02    7.2976297E+06    1.9844241E-02    7.1891359E+06
    3.13   400.000   -2.784E+02    7.3219211E+06    3.0598729E+04   -1.8242773E-02    7.2926959E+06    2.0552673E-02    7.1949886E+06
    3.14   400.000   -2.788E+02    7.2608151E+06    2.6210039E+04   -1.7022133E-02    7.2337363E+06    2.1232702E-02    7.1457658E+06
    3.15   400.000   -2.792E+02    7.1617419E+06    2.0563179E+04   -1.5388944E-02    7.1358263E+06    2.2015625E-02    7.0566119E+06
    3.16   400.000   -2.795E+02    7.0462755E+06    1.3780363E+04   -1.3304998E-02    7.0197459E+06    2.2922694E-02    6.9483477E+06
    3.17   400.000   -2.799E+02    6.9377643E+06    6.3065763E+03   -1.0801305E-02    6.9084484E+06    2.3873409E-02    6.8438396E+06
    3.18   400.000   -2.802E+02    6.8582110E+06   -1.0764943E+03   -7.9689694E-03    6.8240033E+06    2.4717272E-02    6.7648999E+06
    3.19   400.000   -2.806E+02    6.8261397E+06   -7.4228688E+03   -4.9286373E-03    6.7854126E+06    2.5275543E-02    6.7301673E+06
    3.20   400.000   -2.809E+02    6.8554158E+06   -1.1908373E+04   -1.8048399E-03    6.8073039E+06    2.5385260E-02    6.7539763E+06
    3.21   400.000   -2.813E+02    6.9548081E+06   -1.4078363E+04    1.2731995E-03    6.8993198E+06    2.4937621E-02    6.8459823E+06
    3.22   400.000   -2.816E+02    7.1281031E+06   -1.3936913E+04    4.1437712E-03    7.0660450E+06    2.3897939E-02    7.0112705E+06
    3.23   400.000   -2.820E+02    7.3746365E+06   -1.1865699E+04    6.5823761E-03    7.3073667E+06    2.2296198E-02    7.2507365E+06
    3.24   400.000   -2.823E+02    7.6900866E+06   -8.4529368E+03    8.3050198E-03    7.6191612E+06    2.0192025E-02    7.5615654E+06
    3.25   400.000   -2.827E+02    8.0673478E+06   -4.3312098E+03    9.0283354E-03    7.9941658E+06    1.7635616E-02    7.9377095E+06
    3.26   400.000   -2.831E+02    8.4973015E+06   -7.9050081E+01    8.5767409E-03    8.4228725E+06    1.4649320E-02    8.3703374E+06
    3.27   400.000   -2.835E+02    8.9692822E+06    3.8167954E+03    6.9925153E-03    8.8941965E+06    1.1238702E-02    8.8482081E+06
    3.28   400.000   -2.839E+02    9.4709926E+06    6.9716338E+03    4.5913233E-03    9.3955953E+06    7.4210864E-03    9.3577938E+06
    3.29   400.000   -2.844E+02    9.9877104E+06    9.1105100E+03    1.9253838E-03    9.9124052E+06    3.2510238E-03    9.8829162E+06
    3.30   400.000   -2.848E+02    1.0500971E+07    1.0071885E+04   -3.3942156E-04    1.0426542E+07   -1.1719879E-03    1.0403898E+07
    3.31   400.000   -2.853E+02    1.0987357E+07    9.7933195E+03   -1.5853074E-03    1.0915184E+07   -5.7173639E-03    1.0896695E+07
    3.32   400.000   -2.858E+02    1.1418295E+07    8.2804855E+03   -1.3845485E-03    1.1350333E+07   -1.0253992E-02    1.1332851E+07
    3.33   400.000   -2.863E+02    1.1761583E+07    5.5866119E+03    4.1731019E-04    1.1700081E+07   -1.4685769E-02    1.1681033E+07
    3.34   400.000   -2.868E+02    1.1984887E+07    1.8337959E+03    3.6864407E-03    1.1931927E+07   -1.8975798E-02    1.1910377E+07
    3.35   400.000   -2.874E+02    1.2060671E+07   -2.7233604E+03    8.0444978E-03    1.2017737E+07   -2.3145886E-02    1.1995076E+07
    3.36   400.000   -2.879E+02    1.1971510E+07   -7.6371461E+03    1.2955894E-02    1.1939248E+07   -2.7250289E-02    1.1919092E+07
    3.37   400.000   -2.884E+02    1.1714441E+07   -1.2275733E+04    1.7840453E-02    1.1692648E+07   -3.1336231E-02    1.1679822E+07
    3.38   400.000   -2.889E+02    1.1303153E+07   -1.5938936E+04    2.2187700E-02    1.1290896E+07   -3.5407843E-02    1.1289871E+07
    3.39   400.000   -2.894E+02    1.0767169E+07   -1.8050757E+04    2.5646135E-02    1.0762935E+07   -3.9404753E-02    1.0776433E+07
    3.40   400.000   -2.899E+02    1.0147879E+07   -1.8342502E+04    2.8068009E-02    1.0149725E+07   -4.3199098E-02    1.0178110E+07
    3.41   400.000   -2.904E+02    9.4921773E+06   -1.6941173E+04    2.9505776E-02    9.4978978E+06   -4.6609306E-02    9.5394965E+06
    3.42   400.000   -2.908E+02    8.8452337E+06   -1.4333180E+04    3.0170315E-02    8.8525969E+06   -4.9423945E-02    8.9045482E+06
    3.43   400.000   -2.913E+02    8.2441142E+06   -1.1233716E+04    3.0366006E-02    8.2511722E+06   -5.1425015E-02    8.3102514E+06
    3.44   400.000   -2.917E+02    7.7135892E+06   -8.4162166E+03    3.0416715E-02    7.7189982E+06   -5.2402613E-02    7.7821118E+06
    3.45   400.000   -2.922E+02    7.2647975E+06   -6.5483108E+03    3.0596304E-02    7.2680195E+06   -5.2163975E-02    7.3324100E+06
    3.46   400.000   -2.926E+02    6.8967753E+06   -6.0658292E+03    3.1078984E-02    6.8980362E+06   -5.0550692E-02    6.9614144E+06
    3.47   400.000   -2.930E+02    6.6002296E+06   -7.1047155E+03    3.1923215E-02    6.6002043E+06   -4.7475248E-02    6.6609474E+06
    3.48   400.000   -2.935E+02    6.3623464E+06   -9.4974052E+03    3.3093577E-02    6.3616805E+06   -4.2969819E-02    6.4190450E+06
    3.49   400.000   -2.939E+02    6.1711035E+06   -1.2827742E+04    3.4510187E-02    6.1699756E+06   -3.7221415E-02    6.2241561E+06
    3.50   400.000   -2.944E+02    6.0178309E+06   -1.6533925E+04    3.6103136E-02    6.0157459E+06   -3.0566453E-02    6.0676530E+06
    3.51   400.000   -2.948E+02    5.8976138E+06   -2.0045224E+04    3.7848507E-02    5.8935010E+06   -2.3437847E-02    5.9442939E+06
    3.52   400.000   -2.953E+02    5.8080962E+06   -2.2920682E+04    3.9773682E-02    5.8006327E+06   -1.6283833E-02    5.8512038E+06
    3.53   400.000   -2.958E+02    5.7477639E+06   -2.4937972E+04    4.1935279E-02    5.7357413E+06   -9.4913132E-03    5.7864062E+06
    3.54   400.000   -2.963E+02    5.7146895E+06   -2.6093996E+04    4.4384102E-02    5.6972367E+06   -3.3402310E-03    5.7477936E+06
    3.55   400.000   -2.968E+02    5.7062327E+06   -2.6531950E+04    4.7134246E-02    5.6828146E+06    2.0036591E-03    5.7329281E+06
    3.56   400.000   -2.974E+02    5.7196316E+06   -2.6453626E+04    5.0147853E-02    5.6898997E+06    6.4691233E-03    5.7395509E+06
    3.57   400.000   -2.979E+02    5.7529835E+06   -2.6065747E+04    5.3335595E-02    5.7166598E+06    1.0052670E-02    5.7663356E+06
    3.58   400.000   -2.985E+02    5.8059514E+06   -2.5561745E+04    5.6562505E-02    5.7628958E+06    1.2799538E-02    5.8133389E+06
    3.59   400.000   -2.990E+02    5.8797518E+06   -2.5108209E+04    5.9648306E-02    5.8302021E+06    1.4795001E-02    5.8818264E+06
    3.60   400.000   -2.996E+02    5.9764942E+06   -2.4814658E+04    6.2363172E-02    5.9212931E+06    1.6158907E-02    5.9735861E+06
    3.61   400.000   -3.002E+02    6.0983376E+06   -2.4698675E+04    6.4433847E-02    6.0389231E+06    1.7036074E-02    6.0901539E+06
    3.62   400.000   -3.008E+02    6.2468651E+06   -2.4678259E+04    6.5575993E-02    6.1849398E+06    1.7581758E-02    6.2323056E+06
    3.63   400.000   -3.014E+02    6.4226691E+06   -2.4606862E+04    6.5551894E-02    6.3596750E+06    1.7947039E-02    6.3998051E+06
    3.64   400.000   -3.020E+02    6.6248516E+06   -2.4330648E+04    6.4231465E-02    6.5615133E+06    1.8268684E-02    6.5911292E+06
    3.65   400.000   -3.026E+02    6.8502692E+06   -2.3732403E+04    6.1627841E-02    6.7864429E+06    1.8663690E-02    6.8029685E+06
    3.66   400.000   -3.032E+02    7.0927083E+06   -2.2748422E+04    5.7892406E-02    7.0276269E+06    1.9224999E-02    7.0296080E+06
    3.67   400.000   -3.038E+02    7.3424168E+06   -2.1372698E+04    5.3274747E-02    7.2752292E+06    2.0014483E-02    7.2625210E+06
    3.68   400.000   -3.045E+02    7.5864084E+06   -1.9661506E+04    4.8065744E-02    7.5167737E+06    2.1052054E-02    7.4905361E+06
    3.69   400.000   -3.051E+02    7.8097785E+06   -1.7729182E+04    4.2543926E-02    7.7382600E+06    2.2304420E-02    7.7008306E+06
    3.70   400.000   -3.057E+02    7.9979849E+06   -1.5718252E+04    3.6941632E-02    7.9260882E+06    2.3681617E-02    7.8807542E+06
    3.71   400.000   -3.063E+02    8.1396007E+06   -1.3746604E+04    3.1439777E-02    8.0694826E+06    2.5050663E-02    8.0200817E+06
    3.72   400.000   -3.069E+02    8.2286727E+06   -1.1859022E+04    2.6187849E-02    8.1626886E+06    2.6270730E-02    8.1129367E+06
    3.73   400.000   -3.075E+02    8.2658307E+06   -1.0015304E+04    2.1333641E-02    8.2061232E+06    2.7244280E-02    8.1586917E+06
    3.74   400.000   -3.080E+02    8.2577929E+06   -8.1295434E+03    1.7043074E-02    8.2060352E+06    2.7967898E-02    8.1616508E+06
    3.75   400.000   -3.086E+02    8.2155449E+06   -6.1487166E+03    1.3497194E-02    8.1728319E+06    2.8560455E-02    8.1298546E+06
    3.76   400.000   -3.091E+02    8.1519158E+06   -4.1354409E+03    1.0867186E-02    8.1187295E+06    2.9250446E-02    8.0735634E+06
    3.77   400.000   -3.096E+02    8.0794041E+06   -2.3056146E+03    9.2809863E-03    8.0556006E+06    3.0320705E-02    8.0038796E+06
    3.78   400.000   -3.101E+02    8.0088367E+06   -9.7750547E+02    8.7992882E-03    7.9936658E+06    3.2028713E-02    7.9316921E+06
    3.79   400.000   -3.106E+02    7.9488454E+06   -4.2916209E+02    9.4118498E-03    7.9410489E+06    3.4530681E-02    7.8668018E+06
    3.80   400.000   -3.111E+02    7.9056538E+06   -7.2849350E+02    1.1051735E-02    7.9036634E+06    3.7833170E-02    7.8169793E+06
    3.81   400.000   -3.115E+02    7.8827703E+06   -1.6465387E+03    1.3613381E-02    7.8849670E+06    4.1784659E-02    7.7869962E+06
    3.82   400.000   -3.120E+02    7.8807379E+06   -2.7320360E+03    1.6957623E-02    7.8856911E+06    4.6107922E-02    7.7780891E+06
    3.83   400.000   -3.124E+02    7.8974056E+06   -3.5165186E+03    2.0896232E-02    7.9040121E+06    5.0461177E-02    7.7883411E+06
    3.84   400.000   -3.128E+02    7.9288663E+06   -3.7181985E+03    2.5166191E-02    7.9363526E+06    5.4502907E-02    7.8139405E+06
    3.85   400.000   -3.132E+02    7.9705634E+06   -3.3145182E+03    2.9417969E-02    7.9783652E+06    5.7932520E-02    7.8506024E+06
    3.86   400.000   -3.136E+02    8.0177945E+06   -2.4606984E+03    3.3240225E-02    8.0253678E+06    6.0496325E-02    7.8942372E+06
    3.87   400.000   -3.140E+02    8.0653171E+06   -1.3464635E+03    3.6224418E-02    8.0719623E+06    6.1976662E-02    7.9405026E+06
    3.88   400.000   -3.144E+02    8.1066441E+06   -1.0720964E+02    3.8049936E-02    8.1114339E+06    6.2195923E-02    7.9838187E+06
    3.89   400.000   -3.148E+02    8.1340753E+06    1.1650937E+03    3.8558984E-02    8.1359519E+06    6.1049777E-02    8.0169703E+06
    3.90   400.000   -3.151E+02    8.1400827E+06    2.3566596E+03    3.7794445E-02    8.1381157E+06    5.8549300E-02    8.0321102E+06
    3.91   400.000   -3.155E+02    8.1196770E+06    3.2932626E+03    3.5986340E-02    8.1133860E+06    5.4833842E-02    8.0230448E+06
    3.92   400.000   -3.159E+02    8.0726152E+06    3.7716769E+03    3.3487360E-02    8.0622078E+06    5.0133471E-02    7.9877768E+06
    3.93   400.000   -3.162E+02    8.0042629E+06    3.6357614E+03    3.0673730E-02    7.9906686E+06    4.4696386E-02    7.9299542E+06
    3.94   400.000   -3.166E+02    7.9245941E+06    2.8344741E+03    2.7842000E-02    7.9092756E+06    3.8721235E-02    7.8583779E+06
    3.95   400.000   -3.169E+02    7.8457586E+06    1.4220210E+03    2.5136943E-02    7.8303920E+06    3.2329618E-02    7.7847746E+06
    3.96   400.000   -3.172E+02    7.7793099E+06   -4.8601255E+02    2.2534733E-02    7.7654755E+06    2.5588805E-02    7.7209520E+06
    3.97   400.000   -3.176E+02    7.7342197E+06   -2.7560139E+03    1.9884724E-02    7.7232069E+06    1.8569757E-02    7.6766103E+06
    3.98   400.000   -3.179E+02    7.7162234E+06   -5.2507314E+03    1.6993802E-02    7.7089634E+06    1.1412748E-02    7.6584698E+06
    3.99   400.000   -3.182E+02    7.7282209E+06   -7.8250459E+03    1.3724965E-02    7.7252715E+06    4.3705038E-03    7.6704616E+06
    4.00   400.000   -3.185E+02    7.7708743E+06   -1.0332988E+04    1.0076911E-02    7.7723711E+06   -2.1973224E-03    7.7141352E+06
    4.01   400.000   -3.188E+02    7.8426095E+06   -1.2660548E+04    6.2159526E-03    7.8481548E+06   -7.8904494E-03    7.7885335E+06
    4.02   400.000   -3.191E+02    7.9389198E+06   -1.4770996E+04    2.4461681E-03    7.9474697E+06   -1.2379112E-02    7.8894816E+06
    4.03   400.000   -3.194E+02    8.0516816E+06   -1.6736968E+04   -8.7660698E-04    8.0615304E+06   -1.5513266E-02    8.0089950E+06
    4.04   400.000   -3.197E+02    8.1694534E+06   -1.8739636E+04   -3.4623223E-03    8.1783785E+06   -1.7374329E-02    8.1356837E+06
    4.05   400.000   -3.200E+02    8.2791998E+06   -2.1027766E+04   -5.1958895E-03    8.2847369E+06   -1.8242590E-02    8.2564748E+06
    4.06   400.000   -3.202E+02    8.3689916E+06   -2.3842775E+04   -6.1928637E-03    8.3687276E+06   -1.8502434E-02    8.3591443E+06
    4.07   400.000   -3.205E+02    8.4306342E+06   -2.7330434E+04   -6.7719073E-03    8.4224096E+06   -1.8538124E-02    8.4347005E+06
    4.08   400.000   -3.208E+02    8.4611971E+06   -3.1469706E+04   -7.3510368E-03    8.4431835E+06   -1.8662687E-02    8.4787942E+06
    4.09   400.000   -3.210E+02    8.4628703E+06   -3.6046225E+04   -8.3128424E-03    8.4335792E+06   -1.9087326E-02    8.4917689E+06
    4.10   400.000   -3.212E+02    8.4411582E+06   -4.0682201E+04   -9.8964042E-03    8.3994769E+06   -1.9913310E-02    8.4773776E+06
    4.11   400.000   -3.215E+02    8.4019913E+06   -4.4912835E+04   -1.2151933E-02    8.3473134E+06   -2.1129221E-02    8.4405367E+06
    4.12   400.000   -3.217E+02    8.3487751E+06   -4.8280535E+04   -1.4956318E-02    8.2812386E+06   -2.2612036E-02    8.3848132E+06
    4.13   400.000   -3.219E+02    8.2805076E+06   -5.0412522E+04   -1.8060985E-02    8.2012880E+06   -2.4139825E-02    8.3105388E+06
    4.14   400.000   -3.221E+02    8.1917279E+06   -5.1060886E+04   -2.1142081E-02    8.1032830E+06   -2.5419699E-02    8.2143267E+06
    4.15   400.000   -3.223E+02    8.0743484E+06   -5.0107494E+04   -2.3841733E-02    7.9804797E+06   -2.6125955E-02    8.0902776E+06
    4.16   400.000   -3.225E+02    7.9206719E+06   -4.7551290E+04   -2.5810699E-02    7.8262867E+06   -2.5941540E-02    7.9324677E+06
    4.17   400.000   -3.228E+02    7.7264171E+06   -4.3493757E+04   -2.6769404E-02    7.6369539E+06   -2.4602234E-02    7.7377107E+06
    4.18   400.000   -3.230E+02    7.4926210E+06   -3.8126276E+04   -2.6588708E-02    7.4132304E+06   -2.1947385E-02    7.5074445E+06
    4.19   400.000   -3.232E+02    7.2258669E+06   -3.1712119E+04   -2.5363232E-02    7.1605668E+06   -1.7973863E-02    7.2480619E+06
    4.20   400.000   -3.234E+02    6.9370747E+06   -2.4554895E+04   -2.3431575E-02    6.8881456E+06   -1.2874341E-02    6.9698152E+06
    4.21   400.000   -3.236E+02    6.6395624E+06   -1.6957541E+04   -2.1310294E-02    6.6073707E+06   -7.0330366E-03    6.6849883E+06
    4.22   400.000   -3.238E+02    6.3470574E+06   -9.1895663E+03   -1.9551179E-02    6.3303183E+06   -9.6343649E-04    6.4060595E+06
    4.23   400.000   -3.240E+02    6.0720028E+06   -1.4758166E+03   -1.8577393E-02    6.0683325E+06    4.8021489E-03    6.1442202E+06
    4.24   400.000   -3.242E+02    5.8242424E+06    5.9976368E+03   -1.8570379E-02    5.8307774E+06    9.8376685E-03    5.9082845E+06
    4.25   400.000   -3.244E+02    5.6101166E+06    1.3069201E+04   -1.9453599E-02    5.6240239E+06    1.3919196E-02    5.7039287E+06
    4.26   400.000   -3.247E+02    5.4320664E+06    1.9577437E+04   -2.0968311E-02    5.4508706E+06    1.7055578E-02    5.5332935E+06
    4.27   400.000   -3.249E+02    5.2888656E+06    2.5329993E+04   -2.2794176E-02    5.3106110E+06    1.9443221E-02    5.3950879E+06
    4.28   400.000   -3.251E+02    5.1765450E+06    3.0092523E+04   -2.4657514E-02    5.1998501E+06    2.1367614E-02    5.2853456E+06
    4.29   400.000   -3.254E+02    5.0899535E+06    3.3626852E+04   -2.6391203E-02    5.1139951E+06    2.3097148E-02    5.1988694E+06
    4.30   400.000   -3.256E+02    5.0246356E+06    3.5768936E+04   -2.7940495E-02    5.0490606E+06    2.4813109E-02    5.1310791E+06
    4.31   400.000   -3.259E+02    4.9783491E+06    3.6495735E+04   -2.9329112E-02    5.0030886E+06    2.6595874E-02    5.0795519E+06
    4.32   400.000   -3.262E+02    4.9514286E+06    3.5934762E+04   -3.0606285E-02    4.9764162E+06    2.8457473E-02    5.0444117E+06
    4.33   400.000   -3.265E+02    4.9456665E+06    3.4317176E+04   -3.1795211E-02    4.9705339E+06    3.0391129E-02    5.0272402E+06
    4.34   400.000   -3.268E+02    4.9622523E+06    3.1914830E+04   -3.2860500E-02    4.9861231E+06    3.2406735E-02    5.0290966E+06
    4.35   400.000   -3.271E+02    4.9999024E+06    2.8997510E+04   -3.3705375E-02    5.0213836E+06    3.4535438E-02    5.0488143E+06
    4.36   400.000   -3.274E+02    5.0541589E+06    2.5812129E+04   -3.4198443E-02    5.0715367E+06    3.6806759E-02    5.0825015E+06
    4.37   400.000   -3.277E+02    5.1180655E+06    2.2564405E+04   -3.4219185E-02    5.1296371E+06    3.9214800E-02    5.1243314E+06
    4.38   400.000   -3.280E+02    5.1836873E+06    1.9399306E+04   -3.3704779E-02    5.1881231E+06    4.1689953E-02    5.1679725E+06
    4.39   400.000   -3.283E+02    5.2436969E+06    1.6406165E+04   -3.2679224E-02    5.2403266E+06    4.4086277E-02    5.2078578E+06
    4.40   400.000   -3.287E+02    5.2925287E+06    1.3672125E+04   -3.1249458E-02    5.2814464E+06    4.6192487E-02    5.2398910E+06
    4.41   400.000   -3.290E+02    5.3269872E+06    1.1362001E+04   -2.9564905E-02    5.3089205E+06    4.7773708E-02    5.2616628E+06
    4.42   400.000   -3.293E+02    5.3463793E+06    9.7612981E+03   -2.7755472E-02    5.3223764E+06    4.8639883E-02    5.2724472E+06
    4.43   400.000   -3.296E+02    5.3522141E+06    9.2360826E+03   -2.5876915E-02    5.3233088E+06    4.8714753E-02    5.2730989E+06
    4.44   400.000   -3.299E+02    5.3475040E+06    1.0127659E+04   -2.3888677E-02    5.3145098E+06    4.8066393E-02    5.2657646E+06
    4.45   400.000   -3.302E+02    5.3358190E+06    1.2643896E+04   -2.1670059E-02    5.2993008E+06    4.6875460E-02    5.2533228E+06
    4.46   400.000   -3.305E+02    5.3204377E+06    1.6794262E+04   -1.9062585E-02    5.2808006E+06    4.5354442E-02    5.2387201E+06
    4.47   400.000   -3.309E+02    5.3039846E+06    2.2374761E+04   -1.5922493E-02    5.2615885E+06    4.3660926E-02    5.2245682E+06
    4.48   400.000   -3.312E+02    5.2887197E+06    2.8989235E+04   -1.2172958E-02    5.2439531E+06    4.1846657E-02    5.2132522E+06
    4.49   400.000   -3.315E+02    5.2772385E+06    3.6098195E+04   -7.8489507E-03    5.2305348E+06    3.9855744E-02    5.2074200E+06
    4.50   400.000   -3.318E+02    5.2730537E+06    4.3090121E+04   -3.1243363E-03    5.2248738E+06    3.7555452E-02    5.2104151E+06
    4.51   400.000   -3.321E+02    5.2806257E+06    4.9362276E+04    1.6917287E-03    5.2314578E+06    3.4773874E-02    5.2262713E+06
    4.52   400.000   -3.324E+02    5.3048435E+06    5.4389821E+04    6.1953141E-03    5.2552584E+06    3.1331660E-02    5.2592735E+06
    4.53   400.000   -3.327E+02    5.3503415E+06    5.7766145E+04    9.9572441E-03    5.3010898E+06    2.7072316E-02    5.3134116E+06
    4.54   400.000   -3.330E+02    5.4210507E+06    5.9214722E+04    1.2601782E-02    5.3731395E+06    2.1899641E-02    5.3920565E+06
    4.55   400.000   -3.333E+02    5.5201450E+06    5.8591671E+04    1.3872019E-02    5.4748212E+06    1.5819022E-02    5.4979698E+06
    4.56   400.000   -3.336E+02    5.6503448E+06    5.5901223E+04    1.3665923E-02    5.6089475E+06    8.9650997E-03    5.6336035E+06
    4.57   400.000   -3.339E+02    5.8144910E+06    5.1325136E+04    1.2037765E-02    5.7781850E+06    1.5973704E-03    5.8016330E+06
    4.58   400.000   -3.342E+02    6.0162699E+06    4.5235607E+04    9.1696341E-03    5.9857197E+06   -5.9406322E-03    6.0056351E+06
    4.59   400.000   -3.345E+02    6.2608476E+06    3.8150507E+04    5.3231714E-03    6.2359253E+06   -1.3286239E-02    6.2506942E+06
    4.60   400.000   -3.348E+02    6.5550980E+06    3.0620627E+04    7.8335459E-04    6.5347273E+06   -2.0127390E-02    6.5436297E+06
    4.61   400.000   -3.351E+02    6.9072354E+06    2.3094945E+04   -4.1919063E-03    6.8894410E+06   -2.6260635E-02    6.8926541E+06
    4.62   400.000   -3.355E+02    7.3259558E+06    1.5843227E+04   -9.3995532E-03    7.3081207E+06   -3.1624737E-02    7.3065604E+06
    4.63   400.000   -3.358E+02    7.8193410E+06    8.9864999E+03   -1.4682472E-02    7.7986086E+06   -3.6298654E-02    7.7936864E+06
    4.64   400.000   -3.361E+02    8.3936051E+06    2.6098955E+03   -1.9884919E-02    8.3673316E+06   -4.0457414E-02    8.3607289E+06
    4.65   400.000   -3.365E+02    9.0514606E+06   -3.1276152E+03   -2.4795165E-02    9.0176453E+06   -4.4293269E-02    9.0111733E+06
    4.66   400.000   -3.368E+02    9.7899005E+06   -7.9645967E+03   -2.9110467E-02    9.7475682E+06   -4.7928212E-02    9.7431101E+06
    4.67   400.000   -3.372E+02    1.0597671E+07   -1.1604672E+04   -3.2450657E-02    1.0547215E+07   -5.1354186E-02    1.0546675E+07
    4.68   400.000   -3.376E+02    1.1453280E+07   -1.3832912E+04   -3.4422188E-02    1.1396753E+07   -5.4427917E-02    1.1401921E+07
    4.69   400.000   -3.380E+02    1.2324539E+07   -1.4612418E+04   -3.4710518E-02    1.2265797E+07   -5.6921262E-02    1.2278122E+07
    4.70   400.000   -3.384E+02    1.3170286E+07   -1.4111055E+04   -3.3168032E-02    1.3114791E+07   -5.8601778E-02    1.3135185E+07
    4.71   400.000   -3.388E+02    1.3944476E+07   -1.2647564E+04   -2.9868374E-02    1.3898609E+07   -5.9308208E-02    1.3927476E+07
    4.72   400.000   -3.393E+02    1.4602524E+07   -1.0588327E+04   -2.5110185E-02    1.4572453E+07   -5.8994490E-02    1.4610046E+07
    4.73   400.000   -3.397E+02    1.5109323E+07   -8.2531550E+03   -1.9368288E-02    1.5099737E+07   -5.7733996E-02    1.5146741E+07
    4.74   400.000   -3.401E+02    1.5447177E+07   -5.8843176E+03   -1.3205409E-02    1.5460379E+07   -5.5692699E-02    1.5518413E+07
    4.75   400.000   -3.406E+02    1.5620665E+07   -3.6936645E+03   -7.1694901E-03    1.5656335E+07   -5.3091199E-02    1.5728117E+07
    4.76   400.000   -3.410E+02    1.5655498E+07   -1.9452940E+03   -1.7047276E-03    1.5711141E+07   -5.0177026E-02    1.5800209E+07
    4.77   400.000   -3.415E+02    1.5590810E+07   -9.9502019E+02    2.9048091E-03    1.5662597E+07   -4.7215833E-02    1.5772620E+07
    4.78   400.000   -3.419E+02    1.5467639E+07   -1.2294286E+03    6.5559428E-03    1.5551205E+07   -4.4488303E-02    1.5685064E+07
    4.79   400.000   -3.424E+02    1.5318203E+07   -2.9188424E+03    9.3174922E-03    1.5409083E+07   -4.2267607E-02    1.5567960E+07
    4.80   400.000   -3.428E+02    1.5159744E+07   -6.0644677E+03    1.1394974E-02    1.5253387E+07   -4.0764350E-02    1.5436121E+07
    4.81   400.000   -3.433E+02    1.4994067E+07   -1.0330476E+04    1.3069079E-02    1.5085617E+07   -4.0053262E-02    1.5288600E+07
    4.82   400.000   -3.437E+02    1.4811487E+07   -1.5106076E+04    1.4617150E-02    1.4895697E+07   -4.0014415E-02    1.5113376E+07
    4.83   400.000   -3.441E+02    1.4596916E+07   -1.9676113E+04    1.6241721E-02    1.4668498E+07   -4.0318069E-02    1.4894357E+07
    4.84   400.000   -3.445E+02    1.4336195E+07   -2.3428252E+04    1.8031125E-02    1.4390625E+07   -4.0464851E-02    1.4618313E+07
    4.85   400.000   -3.449E+02    1.4021435E+07   -2.6010220E+04    1.9958027E-02    1.4055925E+07   -3.9878102E-02    1.4280151E+07
    4.86   400.000   -3.453E+02    1.3654474E+07   -2.7373774E+04    2.1900585E-02    1.3668613E+07   -3.8036011E-02    1.3885587E+07
    4.87   400.000   -3.457E+02    1.3247590E+07   -2.7694830E+04    2.3667649E-02    1.3243335E+07   -3.4619024E-02    1.3450738E+07
    4.88   400.000   -3.461E+02    1.2821061E+07   -2.7223377E+04    2.5021926E-02    1.2802089E+07   -2.9631327E-02    1.2998758E+07
    4.89   400.000   -3.465E+02    1.2398239E+07   -2.6155271E+04    2.5706767E-02    1.2368987E+07   -2.3448017E-02    1.2554500E+07
    4.90   400.000   -3.468E+02    1.2000014E+07   -2.4594132E+04    2.5483517E-02    1.1964776E+07   -1.6755074E-02    1.2139085E+07
    4.91   400.000   -3.472E+02    1.1640993E+07   -2.2595915E+04    2.4180143E-02    1.1603321E+07   -1.0383930E-02    1.1766482E+07
    4.92   400.000   -3.475E+02    1.1328929E+07   -2.0226392E+04    2.1742157E-02    1.1291414E+07   -5.0821605E-03    1.1443424E+07
    4.93   400.000   -3.479E+02    1.1067233E+07   -1.7570918E+04    1.8267201E-02    1.1031599E+07   -1.2929654E-03    1.1172336E+07
    4.94   400.000   -3.482E+02    1.0858718E+07   -1.4702249E+04    1.4002895E-02    1.0826086E+07    9.7481763E-04    1.0955300E+07
    4.95   400.000   -3.486E+02    1.0708108E+07   -1.1661173E+04    9.3006976E-03    1.0679270E+07    2.1306100E-03    1.0796617E+07
    4.96   400.000   -3.489E+02    1.0621713E+07   -8.4858645E+03    4.5392587E-03    1.0597275E+07    2.8413426E-03    1.0702396E+07
    4.97   400.000   -3.493E+02    1.0604316E+07   -5.2696195E+03    4.3263776E-05    1.0584665E+07    3.7865680E-03    1.0677335E+07
    4.98   400.000   -3.496E+02    1.0654811E+07   -2.2001988E+03   -3.9776277E-03    1.0639922E+07    5.4194094E-03    1.0720261E+07
    4.99   400.000   -3.500E+02    1.0762690E+07    4.4448257E+02   -7.4525758E-03    1.0751888E+07    7.8129075E-03    1.0820568E+07
    5.00   400.000   -3.503E+02    1.0907105E+07    2.3418809E+03   -1.0428477E-02    1.0898955E+07    1.0631237E-02    1.0957320E+07
# T(K) = 500.00   Npoints =    1001   V(cm^3) =  1.139E-20
   -5.00   500.000    3.627E+02    3.2665198E+06    2.6573727E+03    4.3099164E-03    3.2573485E+06    4.5416922E-03    3.2860381E+06
   -4.99   500.000    3.617E+02    3.2765338E+06    2.2125963E+03    3.1287973E-03    3.2654006E+06    4.8485116E-03    3.2972784E+06
   -4.98   500.000    3.608E+02    3.2790307E+06    1.8540147E+03    2.0139023E-03    3.2658326E+06    5.0839178E-03    3.3007016E+06
   -4.97   500.000    3.598E+02    3.2762678E+06    1.5989507E+03    1.0598391E-03    3.2609801E+06    5.2180953E-03    3.2987513E+06
   -4.96   500.000    3.589E+02    3.2707850E+06    1.4507089E+03    3.4156539E-04    3.2534850E+06    5.2183004E-03    3.2941104E+06
   -4.95   500.000    3.580E+02    3.2651265E+06    1.3943574E+03   -8.9201471E-05    3.2460115E+06    5.0519320E-03    3.2894232E+06
   -4.94   500.000    3.571E+02    3.2615696E+06    1.3970210E+03   -2.0746188E-04    3.2409647E+06    4.6889185E-03    3.2870326E+06
   -4.93   500.000    3.562E+02    3.2619036E+06    1.4132551E+03   -1.8034267E-05    3.2402522E+06    4.1039215E-03    3.2887616E+06
   -4.92   500.000    3.553E+02    3.2672693E+06    1.3942236E+03    4.4291427E-04    3.2451038E+06    3.2788430E-03    3.2957488E+06
   -4.91   500.000    3.544E+02    3.2780491E+06    1.2982036E+03    1.1095084E-03    3.2559459E+06    2.2058582E-03    3.3083301E+06
   -4.90   500.000    3.536E+02    3.2938038E+06    1.0995706E+03    1.8922010E-03    3.2723302E+06    8.9098735E-04    3.3259688E+06
   -4.89   500.000    3.528E+02    3.3132719E+06    7.9381042E+02    2.6883512E-03    3.2929340E+06   -6.4186251E-04    3.3472563E+06
   -4.88   500.000    3.519E+02    3.3344613E+06    3.9721032E+02    3.3960784E-03    3.3156623E+06   -2.3466227E-03    3.3700200E+06
   -4.87   500.000    3.511E+02    3.3548618E+06   -5.8520264E+01    3.9288657E-03    3.3378762E+06   -4.1513304E-03    3.3915653E+06
   -4.86   500.000    3.503E+02    3.3717683E+06   -5.3486719E+02    4.2276949E-03    3.3567341E+06   -5.9565465E-03    3.4090358E+06
   -4.85   500.000    3.495E+02    3.3826623E+06   -9.9563551E+02    4.2676645E-03    3.3695889E+06   -7.6381470E-03    3.4198306E+06
   -4.84   500.000    3.487E+02    3.3855634E+06   -1.4140184E+03    4.0571874E-03    3.3743540E+06   -9.0564206E-03    3.4219776E+06
   -4.83   500.000    3.479E+02    3.3792683E+06   -1.7761163E+03    3.6298345E-03    3.3697494E+06   -1.0071881E-02    3.4143718E+06
   -4.82   500.000    3.471E+02    3.3634239E+06   -2.0807693E+03    3.0311673E-03    3.3553791E+06   -1.0565800E-02    3.3968301E+06
   -4.81   500.000    3.464E+02    3.3384448E+06   -2.3366056E+03    2.3046162E-03    3.3316442E+06   -1.0461187E-02    3.3699728E+06
   -4.80   500.000    3.456E+02    3.3053190E+06   -2.5576667E+03    1.4807657E-03    3.2995421E+06   -9.7389630E-03    3.3349930E+06
   -4.79   500.000    3.448E+02    3.2653708E+06   -2.7589519E+03    5.7296186E-04    3.2604192E+06   -8.4449475E-03    3.2933841E+06
   -4.78   500.000    3.441E+02    3.2200290E+06   -2.9529517E+03   -4.2043364E-04    3.2157296E+06   -6.6858232E-03    3.2466842E+06
   -4.77   500.000    3.433E+02    3.1706337E+06   -3.1478353E+03   -1.5092786E-03    3.1668352E+06   -4.6151894E-03    3.1962690E+06
   -4.76   500.000    3.426E+02    3.1182908E+06   -3.3473936E+03   -2.7036277E-03    3.1148574E+06   -2.4130650E-03    3.1432064E+06
   -4.75   500.000    3.418E+02    3.0637852E+06   -3.5521900E+03   -4.0071716E-03    3.0605902E+06   -2.6298270E-04    3.0881827E+06
   -4.74   500.000    3.411E+02    3.0075566E+06   -3.7608819E+03   -5.4133634E-03    3.0044796E+06    1.6696642E-03    3.0315022E+06
   -4.73   500.000    3.404E+02    2.9497428E+06   -3.9706858E+03   -6.9040440E-03    2.9466714E+06    3.2554025E-03    2.9731620E+06
   -4.72   500.000    3.396E+02    2.8902782E+06   -4.1765900E+03   -8.4497034E-03    2.8871140E+06    4.4129059E-03    2.9129804E+06
   -4.71   500.000    3.389E+02    2.8290196E+06   -4.3698576E+03   -1.0010548E-02    2.8256875E+06    5.1145896E-03    2.8507463E+06
   -4.70   500.000    3.382E+02    2.7658586E+06   -4.5370305E+03   -1.1537912E-02    2.7623159E+06    5.3849496E-03    2.7863416E+06
   -4.69   500.000    3.374E+02    2.7007858E+06   -4.6605545E+03   -1.2975893E-02    2.6970257E+06    5.2917347E-03    2.7198009E+06
   -4.68   500.000    3.367E+02    2.6338892E+06   -4.7213186E+03   -1.4263432E-02    2.6299392E+06    4.9311747E-03    2.6512948E+06
   -4.67   500.000    3.360E+02    2.5653050E+06   -4.7023224E+03   -1.5337360E-02    2.5612186E+06    4.4098421E-03    2.5810592E+06
   -4.66   500.000    3.353E+02    2.4951536E+06   -4.5920159E+03   -1.6137158E-02    2.4909997E+06    3.8266804E-03    2.5093121E+06
   -4.65   500.000    3.346E+02    2.4234974E+06   -4.3859700E+03   -1.6611909E-02    2.4193510E+06    3.2587174E-03    2.4361963E+06
   -4.64   500.000    3.339E+02    2.3503335E+06   -4.0863718E+03   -1.6728934E-02    2.3462694E+06    2.7528687E-03    2.3617646E+06
   -4.63   500.000    3.332E+02    2.2756087E+06   -3.6999496E+03   -1.6482275E-02    2.2716985E+06    2.3244919E-03    2.2859909E+06
   -4.62   500.000    3.325E+02    2.1992362E+06   -3.2357415E+03   -1.5898287E-02    2.1955460E+06    1.9617319E-03    2.2087873E+06
   -4.61   500.000    3.319E+02    2.1210994E+06   -2.7041440E+03   -1.5035918E-02    2.1176879E+06    1.6337825E-03    2.1300110E+06
   -4.60   500.000    3.313E+02    2.0410508E+06   -2.1178277E+03   -1.3980760E-02    2.0379643E+06    1.3010593E-03    2.0494702E+06
   -4.59   500.000    3.306E+02    1.9589198E+06   -1.4937975E+03   -1.2833911E-02    1.9561877E+06    9.2558572E-04    1.9669427E+06
   -4.58   500.000    3.300E+02    1.8745441E+06   -8.5489599E+02   -1.1698188E-02    1.8721749E+06    4.8022002E-04    1.8822195E+06
   -4.57   500.000    3.294E+02    1.7878254E+06   -2.2912030E+02   -1.0664647E-02    1.7858053E+06   -4.4462960E-05    1.7951699E+06
   -4.56   500.000    3.289E+02    1.6987962E+06    3.5369892E+02   -9.8018722E-03    1.6970909E+06   -6.3660248E-04    1.7058123E+06
   -4.55   500.000    3.283E+02    1.6076813E+06    8.6676329E+02   -9.1494256E-03    1.6062412E+06   -1.2633210E-03    1.6143734E+06
   -4.54   500.000    3.278E+02    1.5149339E+06    1.2907487E+03   -8.7158773E-03    1.5137009E+06   -1.8747218E-03    1.5213172E+06
   -4.53   500.000    3.273E+02    1.4212343E+06    1.6161616E+03   -8.4811390E-03    1.4201497E+06   -2.4109231E-03    1.4273368E+06
   -4.52   500.000    3.268E+02    1.3274482E+06    1.8430797E+03   -8.4024587E-03    1.3264592E+06   -2.8110671E-03    1.3333065E+06
   -4.51   500.000    3.264E+02    1.2345529E+06    1.9788907E+03   -8.4231385E-03    1.2336175E+06   -3.0230032E-03    1.2402063E+06
   -4.50   500.000    3.259E+02    1.1435468E+06    2.0352054E+03   -8.4826201E-03    1.1426370E+06   -3.0121098E-03    1.1490310E+06
   -4.49   500.000    3.255E+02    1.0553598E+06    2.0250407E+03   -8.5261421E-03    1.0544614E+06   -2.7675750E-03    1.0607028E+06
   -4.48   500.000    3.251E+02    9.7078007E+05    1.9609184E+03   -8.5120715E-03    9.6989128E+05   -2.3047165E-03    9.7599929E+05
   -4.47   500.000    3.248E+02    8.9040912E+05    1.8540155E+03   -8.4155617E-03    8.8953639E+05   -1.6627157E-03    8.9550872E+05
   -4.46   500.000    3.244E+02    8.1465336E+05    1.7141232E+03   -8.2283179E-03    8.1380695E+05   -8.9826680E-04    8.1962228E+05
   -4.45   500.000    3.241E+02    7.4375344E+05    1.5500001E+03   -7.9554362E-03    7.4294313E+05   -7.6641103E-05    7.4856375E+05
   -4.44   500.000    3.237E+02    6.7784113E+05    1.3697364E+03   -7.6109443E-03    6.7707315E+05    7.3781169E-04    6.8244803E+05
   -4.43   500.000    3.234E+02    6.1700393E+05    1.1809289E+03   -7.2135779E-03    6.1627974E+05    1.4897597E-03    6.2134838E+05
   -4.42   500.000    3.231E+02    5.6133583E+05    9.9066489E+02   -6.7836992E-03    5.6065269E+05    2.1381652E-03    5.6535039E+05
   -4.41   500.000    3.228E+02    5.1096114E+05    8.0542822E+02   -6.3415286E-03    5.1031403E+05    2.6581929E-03    5.1457849E+05
   -4.40   500.000    3.225E+02    4.6603130E+05    6.3102227E+02   -5.9063306E-03    4.6541555E+05    3.0401420E-03    4.6919424E+05
   -4.39   500.000    3.223E+02    4.2670434E+05    4.7252980E+02   -5.4959724E-03    4.2611828E+05    3.2864826E-03    4.2937560E+05
   -4.38   500.000    3.220E+02    3.9311842E+05    3.3427130E+02   -5.1263362E-03    3.9256524E+05    3.4082688E-03    3.9528815E+05
   -4.37   500.000    3.217E+02    3.6536604E+05    2.1973328E+02   -4.8103382E-03    3.6485444E+05    3.4218842E-03    3.6705545E+05
   -4.36   500.000    3.214E+02    3.4347055E+05    1.3148082E+02   -4.5566737E-03    3.4301397E+05    3.3465269E-03    3.4473064E+05
   -4.35   500.000    3.211E+02    3.2736462E+05    7.1095228E+01   -4.3687083E-03    3.2697892E+05    3.2023778E-03    3.2826964E+05
   -4.34   500.000    3.208E+02    3.1687088E+05    3.9165008E+01   -4.2440079E-03    3.1657117E+05    3.0092182E-03    3.1750778E+05
   -4.33   500.000    3.205E+02    3.1168729E+05    3.5324059E+01   -4.1748113E-03    3.1148457E+05    2.7853202E-03    3.1214293E+05
   -4.32   500.000    3.202E+02    3.1138022E+05    5.8304719E+01   -4.1494037E-03    3.1127887E+05    2.5465817E-03    3.1172895E+05
   -4.31   500.000    3.199E+02    3.1538782E+05    1.0597193E+02   -4.1540106E-03    3.1538493E+05    2.3059725E-03    3.1568209E+05
   -4.30   500.000    3.195E+02    3.2303506E+05    1.7532385E+02   -4.1746382E-03    3.2312204E+05    2.0733738E-03    3.2330070E+05
   -4.29   500.000    3.191E+02    3.3355963E+05    2.6247246E+02   -4.1982974E-03    3.3372624E+05    1.8558381E-03    3.3379682E+05
   -4.28   500.000    3.187E+02    3.4614611E+05    3.6264625E+02   -4.2132641E-03    3.4638565E+05    1.6582053E-03    3.4633545E+05
   -4.27   500.000    3.182E+02    3.5996364E+05    4.7028106E+02   -4.2084031E-03    3.6027794E+05    1.4839092E-03    3.6007584E+05
   -4.26   500.000    3.177E+02    3.7420223E+05    5.7927787E+02   -4.1720131E-03    3.7460437E+05    1.3357231E-03    3.7420915E+05
   -4.25   500.000    3.171E+02    3.8810393E+05    6.8349027E+02   -4.0909495E-03    3.8861739E+05    1.2162013E-03    3.8798864E+05
   -4.24   500.000    3.164E+02    4.0098839E+05    7.7743866E+02   -3.9507647E-03    4.0164252E+05    1.1276875E-03    4.0075187E+05
   -4.23   500.000    3.156E+02    4.1227423E+05    8.5712775E+02   -3.7372224E-03    4.1309704E+05    1.0719761E-03    4.1193745E+05
   -4.22   500.000    3.148E+02    4.2149786E+05    9.2071116E+02   -3.4389207E-03    4.2250858E+05    1.0498971E-03    4.2109902E+05
   -4.21   500.000    3.138E+02    4.2832985E+05    9.6869522E+02   -3.0501971E-03    4.2953319E+05    1.0611407E-03    4.2791783E+05
   -4.20   500.000    3.127E+02    4.3258660E+05    1.0034898E+03   -2.5732486E-03    4.3397037E+05    1.1044707E-03    4.3221259E+05
   -4.19   500.000    3.115E+02    4.3423433E+05    1.0283892E+03   -2.0186273E-03    4.3577013E+05    1.1782016E-03    4.3394382E+05
   -4.18   500.000    3.101E+02    4.3338229E+05    1.0463560E+03   -1.4038617E-03    4.3502866E+05    1.2805842E-03    4.3320906E+05
   -4.17   500.000    3.086E+02    4.3026339E+05    1.0590914E+03   -7.5063656E-04    4.3196991E+05    1.4097590E-03    4.3022630E+05
   -4.16   500.000    3.069E+02    4.2520195E+05    1.0667269E+03   -8.1444139E-05    4.2691351E+05    1.5631821E-03    4.2530451E+05
   -4.15   500.000    3.050E+02    4.1857150E+05    1.0681590E+03    5.8326360E-04    4.2023235E+05    1.7367714E-03    4.1880365E+05
   -4.14   500.000    3.030E+02    4.1074925E+05    1.0617778E+03    1.2266567E-03    4.1230682E+05    1.9242096E-03    4.1109060E+05
   -4.13   500.000    3.007E+02    4.0207632E+05    1.0462435E+03    1.8355851E-03    4.0348476E+05    2.1167724E-03    4.0250000E+05
   -4.12   500.000    2.983E+02    3.9283256E+05    1.0210400E+03    2.3994250E-03    3.9405585E+05    2.3037941E-03    3.9330869E+05
   -4.11   500.000    2.956E+02    3.8323081E+05    9.8669158E+02    2.9084400E-03    3.8424480E+05    2.4736192E-03    3.8372874E+05
   -4.10   500.000    2.928E+02    3.7342997E+05    9.4467256E+02    3.3525010E-03    3.7422301E+05    2.6147571E-03    3.7391901E+05
   -4.09   500.000    2.899E+02    3.6356157E+05    8.9712597E+02    3.7207874E-03    3.6413339E+05    2.7169934E-03    3.6401020E+05
   -4.08   500.000    2.867E+02    3.5376194E+05    8.4653015E+02    4.0026505E-03    3.5412116E+05    2.7723240E-03    3.5413630E+05
   -4.07   500.000    2.834E+02    3.4420176E+05    7.9541894E+02    4.1893328E-03    3.4436248E+05    2.7756933E-03    3.4446406E+05
   -4.06   500.000    2.800E+02    3.3510568E+05    7.4618958E+02    4.2759014E-03    3.3508391E+05    2.7255476E-03    3.3521297E+05
   -4.05   500.000    2.764E+02    3.2675639E+05    7.0095961E+02    4.2626986E-03    3.2656676E+05    2.6241949E-03    3.2665975E+05
   -4.04   500.000    2.727E+02    3.1948009E+05    6.6139970E+02    4.1558387E-03    3.1913329E+05    2.4779115E-03    3.1912422E+05
   -4.03   500.000    2.690E+02    3.1361485E+05    6.2849363E+02    3.9666733E-03    3.1311578E+05    2.2967143E-03    3.1293789E+05
   -4.02   500.000    2.651E+02    3.0946807E+05    6.0224067E+02    3.7105110E-03    3.0881483E+05    2.0937330E-03    3.0840224E+05
   -4.01   500.000    2.612E+02    3.0727323E+05    5.8137514E+02    3.4050562E-03    3.0645710E+05    1.8841582E-03    3.0574681E+05
   -4.00   500.000    2.573E+02    3.0715727E+05    5.6319789E+02    3.0689718E-03    3.0616356E+05    1.6837931E-03    3.0509863E+05
   -3.99   500.000    2.533E+02    3.0912655E+05    5.4359175E+02    2.7207543E-03    3.0793653E+05    1.5073106E-03    3.0647022E+05
   -3.98   500.000    2.493E+02    3.1307406E+05    5.1725066E+02    2.3778683E-03    3.1166746E+05    1.3664051E-03    3.0976819E+05
   -3.97   500.000    2.453E+02    3.1880451E+05    4.7810976E+02    2.0559560E-03    3.1716200E+05    1.2681352E-03    3.1481801E+05
   -3.96   500.000    2.412E+02    3.2606960E+05    4.1992736E+02    1.7679705E-03    3.2417469E+05    1.2138001E-03    3.2139709E+05
   -3.95   500.000    2.371E+02    3.3460534E+05    3.3693355E+02    1.5232486E-03    3.3244517E+05    1.1986570E-03    3.2926836E+05
   -3.94   500.000    2.330E+02    3.4416466E+05    2.2442795E+02    1.3267459E-03    3.4172986E+05    1.2126367E-03    3.3820857E+05
   -3.93   500.000    2.289E+02    3.5454227E+05    7.9199632E+01    1.1787897E-03    3.5182629E+05    1.2420105E-03    3.4802949E+05
   -3.92   500.000    2.247E+02    3.6559101E+05   -1.0031933E+02    1.0756604E-03    3.6258982E+05    1.2717421E-03    3.5859261E+05
   -3.91   500.000    2.204E+02    3.7723142E+05   -3.1416814E+02    1.0110722E-03    3.7394407E+05    1.2880797E-03    3.6981906E+05
   -3.90   500.000    2.162E+02    3.8945584E+05   -5.6113953E+02    9.7824727E-04    3.8588630E+05    1.2808307E-03    3.8169618E+05
   -3.89   500.000    2.118E+02    4.0232902E+05   -8.3906163E+02    9.7193395E-04    3.9848875E+05    1.2447799E-03    3.9428153E+05
   -3.88   500.000    2.075E+02    4.1598653E+05   -1.1449068E+03    9.8959183E-04    4.1189715E+05    1.1798857E-03    4.0770457E+05
   -3.87   500.000    2.032E+02    4.3063177E+05   -1.4746157E+03    1.0312050E-03    4.2632686E+05    1.0902203E-03    4.2216615E+05
   -3.86   500.000    1.989E+02    4.4653117E+05   -1.8226397E+03    1.0977467E-03    4.4205640E+05    9.8199162E-04    4.3793441E+05
   -3.85   500.000    1.946E+02    4.6400458E+05   -2.1813401E+03    1.1889729E-03    4.5941573E+05    8.6124950E-04    4.5533463E+05
   -3.84   500.000    1.903E+02    4.8340624E+05   -2.5404947E+03    1.3016069E-03    4.7876529E+05    7.3192528E-04    4.7472836E+05
   -3.83   500.000    1.862E+02    5.0509226E+05   -2.8871758E+03    1.4288478E-03    5.0046200E+05    5.9468134E-04    4.9647864E+05
   -3.82   500.000    1.821E+02    5.2937441E+05   -3.2061694E+03    1.5615101E-03    5.2481254E+05    4.4678558E-04    5.2090157E+05
   -3.81   500.000    1.781E+02    5.5646726E+05   -3.4809410E+03    1.6903342E-03    5.5202077E+05    2.8299510E-04    5.4821174E+05
   -3.80   500.000    1.742E+02    5.8644200E+05   -3.6950029E+03    1.8085125E-03    5.8214297E+05    9.7273965E-05    5.7847508E+05
   -3.79   500.000    1.705E+02    6.1920254E+05   -3.8334663E+03    1.9135116E-03    6.1506597E+05   -1.1496621E-04    6.1158479E+05
   -3.78   500.000    1.669E+02    6.5449304E+05   -3.8845524E+03    2.0077369E-03    6.5051732E+05   -3.5455968E-04    6.4726950E+05
   -3.77   500.000    1.635E+02    6.9193381E+05   -3.8408566E+03    2.0981475E-03    6.8810371E+05   -6.1677842E-04    6.8513040E+05
   -3.76   500.000    1.603E+02    7.3106912E+05   -3.7001669E+03    2.1952467E-03    7.2736067E+05   -8.9056605E-04    7.2469079E+05
   -3.75   500.000    1.572E+02    7.7140450E+05   -3.4656773E+03    2.3118143E-03    7.6779059E+05   -1.1591534E-03    7.6543547E+05
   -3.74   500.000    1.543E+02    8.1241799E+05   -3.1455444E+03    2.4614673E-03    8.0887329E+05   -1.4020371E-03    8.0682423E+05
   -3.73   500.000    1.517E+02    8.5354728E+05   -2.7519387E+03    2.6568928E-03    8.5005134E+05   -1.5978833E-03    8.4828115E+05
   -3.72   500.000    1.492E+02    8.9417453E+05   -2.2999197E+03    2.9076101E-03    8.9071260E+05   -1.7275855E-03    8.8918106E+05
   -3.71   500.000    1.469E+02    9.3364094E+05   -1.8064875E+03    3.2173889E-03    9.3020285E+05   -1.7766250E-03    9.2886464E+05
   -3.70   500.000    1.448E+02    9.7131579E+05   -1.2899860E+03    3.5818466E-03    9.6789396E+05   -1.7361619E-03    9.6670681E+05
   -3.69   500.000    1.429E+02    1.0067203E+06   -7.6976201E+02    3.9870237E-03    1.0033080E+06   -1.6028396E-03    1.0022383E+06
   -3.68   500.000    1.411E+02    1.0396738E+06   -2.6581437E+02    4.4097131E-03    1.0362649E+06   -1.3778388E-03    1.0352891E+06
   -3.67   500.000    1.395E+02    1.0704060E+06    2.0181115E+02    4.8198985E-03    1.0669972E+06   -1.0659478E-03    1.0660974E+06
   -3.66   500.000    1.380E+02    1.0995767E+06    6.1396572E+02    5.1849425E-03    1.0961722E+06   -6.7520997E-04    1.0953289E+06
   -3.65   500.000    1.367E+02    1.1281706E+06    9.5362373E+02    5.4744581E-03    1.1247883E+06   -2.1725467E-04    1.1239708E+06
   -3.64   500.000    1.354E+02    1.1572754E+06    1.2073036E+03    5.6644567E-03    1.1539531E+06    2.9196166E-04    1.1531129E+06
   -3.63   500.000    1.343E+02    1.1877975E+06    1.3666331E+03    5.7395883E-03    1.1845963E+06    8.3139059E-04    1.1836641E+06
   -3.62   500.000    1.332E+02    1.2201934E+06    1.4299763E+03    5.6929768E-03    1.2171965E+06    1.3743935E-03    1.2160854E+06
   -3.61   500.000    1.322E+02    1.2543045E+06    1.4038422E+03    5.5239647E-03    1.2516095E+06    1.8887317E-03    1.2502227E+06
   -3.60   500.000    1.312E+02    1.2893573E+06    1.3034808E+03    5.2347036E-03    1.2870647E+06    2.3373545E-03    1.2853057E+06
   -3.59   500.000    1.303E+02    1.3241542E+06    1.1518429E+03    4.8267909E-03    1.3223532E+06    2.6804356E-03    1.3201363E+06
   -3.58   500.000    1.295E+02    1.3574163E+06    9.7619953E+02    4.2990795E-03    1.3561729E+06    2.8790317E-03    1.3534302E+06
   -3.57   500.000    1.286E+02    1.3881859E+06    8.0233544E+02    3.6474294E-03    1.3875347E+06    2.9002837E-03    1.3842185E+06
   -3.56   500.000    1.279E+02    1.4161577E+06    6.4724647E+02    2.8666280E-03    1.4160976E+06    2.7233567E-03    1.4121781E+06
   -3.55   500.000    1.271E+02    1.4418184E+06    5.1224425E+02    1.9540691E-03    1.4423114E+06    2.3446961E-03    1.4377708E+06
   -3.54   500.000    1.263E+02    1.4663373E+06    3.7875510E+02    9.1423021E-04    1.4673074E+06    1.7810323E-03    1.4621328E+06
   -3.53   500.000    1.256E+02    1.4912342E+06    2.0865743E+02   -2.3729886E-04    1.4925674E+06    1.0690386E-03    1.4867444E+06
   -3.52   500.000    1.248E+02    1.5179344E+06   -5.0029663E+01   -1.4714131E-03    1.5194787E+06    2.6142759E-04    1.5129897E+06
   -3.51   500.000    1.241E+02    1.5473486E+06   -4.5249404E+02   -2.7455561E-03    1.5489183E+06   -5.7984028E-04    1.5417453E+06
   -3.50   500.000    1.234E+02    1.5796021E+06   -1.0431183E+03   -4.0066306E-03    1.5809861E+06   -1.3919946E-03    1.5731202E+06
   -3.49   500.000    1.227E+02    1.6139750E+06   -1.8410213E+03   -5.1966055E-03    1.6149528E+06   -2.1201035E-03    1.6064072E+06
   -3.48   500.000    1.219E+02    1.6490497E+06   -2.8292438E+03   -6.2600437E-03    1.6494123E+06   -2.7245223E-03    1.6402376E+06
   -3.47   500.000    1.212E+02    1.6830038E+06   -3.9518497E+03   -7.1521002E-03    1.6825757E+06   -3.1858658E-03    1.6728727E+06
   -3.46   500.000    1.204E+02    1.7139567E+06   -5.1214177E+03   -7.8450954E-03    1.7126151E+06   -3.5065565E-03    1.7025398E+06
   -3.45   500.000    1.197E+02    1.7402852E+06   -6.2357126E+03   -8.3319051E-03    1.7379696E+06   -3.7086379E-03    1.7277281E+06
   -3.44   500.000    1.189E+02    1.7608449E+06   -7.1984481E+03   -8.6252405E-03    1.7575564E+06   -3.8284039E-03    1.7473882E+06
   -3.43   500.000    1.181E+02    1.7750757E+06   -7.9374217E+03   -8.7531358E-03    1.7708666E+06   -3.9091033E-03    1.7610203E+06
   -3.42   500.000    1.173E+02    1.7829977E+06   -8.4150288E+03   -8.7520441E-03    1.7779554E+06   -3.9932055E-03    1.7686626E+06
   -3.41   500.000    1.165E+02    1.7851192E+06   -8.6300620E+03   -8.6594197E-03    1.7793486E+06   -4.1154629E-03    1.7708036E+06
   -3.40   500.000    1.156E+02    1.7822849E+06   -8.6131925E+03   -8.5074242E-03    1.7758932E+06   -4.2975985E-03    1.7682406E+06
   -3.39   500.000    1.148E+02    1.7754895E+06   -8.4197818E+03   -8.3187069E-03    1.7685741E+06   -4.5452019E-03    1.7619072E+06
   -3.38   500.000    1.139E+02    1.7656853E+06   -8.1226681E+03   -8.1044723E-03    1.7583263E+06   -4.8473441E-03    1.7526918E+06
   -3.37   500.000    1.130E+02    1.7536160E+06   -7.8055829E+03   -7.8645875E-03    1.7458728E+06   -5.1792702E-03    1.7412798E+06
   -3.36   500.000    1.121E+02    1.7397091E+06   -7.5562591E+03   -7.5893824E-03    1.7316219E+06   -5.5080338E-03    1.7280511E+06
   -3.35   500.000    1.112E+02    1.7240558E+06   -7.4577924E+03   -7.2628753E-03    1.7156513E+06   -5.8000813E-03    1.7130634E+06
   -3.34   500.000    1.103E+02    1.7064850E+06   -7.5774788E+03   -6.8671404E-03    1.6977856E+06   -6.0289183E-03    1.6961276E+06
   -3.33   500.000    1.093E+02    1.6867133E+06   -7.9538994E+03   -6.3872549E-03    1.6777484E+06   -6.1806124E-03    1.6769566E+06
   -3.32   500.000    1.084E+02    1.6645267E+06   -8.5849630E+03   -5.8158887E-03    1.6553428E+06   -6.2554091E-03    1.6553441E+06
   -3.31   500.000    1.074E+02    1.6399410E+06   -9.4212283E+03   -5.1564354E-03    1.6306090E+06   -6.2650727E-03    1.6313187E+06
   -3.30   500.000    1.064E+02    1.6132994E+06   -1.0368993E+04   -4.4238223E-03    1.6039167E+06   -6.2271351E-03    1.6052355E+06
   -3.29   500.000    1.054E+02    1.5852919E+06   -1.1305334E+04   -3.6426916E-03    1.5759784E+06   -6.1582680E-03    1.5777912E+06
   -3.28   500.000    1.044E+02    1.5569039E+06   -1.2102685E+04   -2.8432659E-03    1.5477916E+06   -6.0690189E-03    1.5499711E+06
   -3.27   500.000    1.034E+02    1.5293142E+06   -1.2655763E+04   -2.0557190E-03    1.5205317E+06   -5.9612837E-03    1.5229492E+06
   -3.26   500.000    1.024E+02    1.5037592E+06   -1.2901843E+04   -1.3042343E-03    1.4954151E+06   -5.8286712E-03    1.4979585E+06
   -3.25   500.000    1.014E+02    1.4813797E+06   -1.2828056E+04   -6.0212550E-04    1.4735481E+06   -5.6589574E-03    1.4761428E+06
   -3.24   500.000    1.003E+02    1.4630626E+06   -1.2464965E+04    5.0648078E-05    1.4557763E+06   -5.4374591E-03    1.4584018E+06
   -3.23   500.000    9.930E+01    1.4492978E+06   -1.1870924E+04    6.6664203E-04    1.4425504E+06   -5.1503822E-03    1.4452466E+06
   -3.22   500.000    9.828E+01    1.4400765E+06   -1.1114002E+04    1.2666406E-03    1.4338326E+06   -4.7877010E-03    1.4366924E+06
   -3.21   500.000    9.725E+01    1.4348530E+06   -1.0257351E+04    1.8728457E-03    1.4290624E+06   -4.3455133E-03    1.4322103E+06
   -3.20   500.000    9.623E+01    1.4325875E+06   -9.3511362E+03    2.5013539E-03    1.4271983E+06   -3.8278651E-03    1.4307603E+06
   -3.19   500.000    9.521E+01    1.4318658E+06   -8.4311856E+03    3.1560429E-03    1.4268326E+06   -3.2477986E-03    1.4309036E+06
   -3.18   500.000    9.419E+01    1.4310788E+06   -7.5223531E+03    3.8255229E-03    1.4263645E+06   -2.6271528E-03    1.4309809E+06
   -3.17   500.000    9.317E+01    1.4286283E+06   -6.6436089E+03    4.4838032E-03    1.4242012E+06   -1.9946721E-03    1.4293233E+06
   -3.16   500.000    9.215E+01    1.4231226E+06   -5.8121299E+03    5.0942674E-03    1.4189495E+06   -1.3823637E-03    1.4244608E+06
   -3.15   500.000    9.112E+01    1.4135289E+06   -5.0448830E+03    5.6158566E-03    1.4095702E+06   -8.2062503E-04    1.4152920E+06
   -3.14   500.000    9.009E+01    1.3992674E+06   -4.3578133E+03    6.0101400E-03    1.3954740E+06   -3.3320210E-04    1.4011949E+06
   -3.13   500.000    8.905E+01    1.3802444E+06   -3.7639948E+03    6.2480238E-03    1.3765596E+06    6.6733995E-05    1.3820712E+06
   -3.12   500.000    8.800E+01    1.3568335E+06   -3.2723700E+03    6.3149994E-03    1.3531980E+06    3.7832662E-04    1.3583295E+06
   -3.11   500.000    8.694E+01    1.3298163E+06   -2.8879639E+03    6.2140009E-03    1.3261741E+06    6.1213889E-04    1.3308166E+06
   -3.10   500.000    8.587E+01    1.3002918E+06   -2.6133106E+03    5.9652378E-03    1.2965932E+06    7.8696311E-04    1.3007108E+06
   -3.09   500.000    8.477E+01    1.2695615E+06   -2.4500395E+03    5.6029056E-03    1.2657624E+06    9.2533726E-04    1.2693896E+06
   -3.08   500.000    8.366E+01    1.2389993E+06   -2.3995639E+03    5.1694051E-03    1.2350560E+06    1.0490669E-03    1.2382847E+06
   -3.07   500.000    8.251E+01    1.2099144E+06   -2.4623976E+03    4.7083637E-03    1.2057760E+06    1.1758877E-03    1.2087380E+06
   -3.06   500.000    8.134E+01    1.1834221E+06   -2.6362974E+03    4.2580336E-03    1.1790232E+06    1.3178848E-03    1.1818733E+06
   -3.05   500.000    8.012E+01    1.1603372E+06   -2.9138222E+03    3.8464020E-03    1.1555939E+06    1.4816487E-03    1.1584959E+06
   -3.04   500.000    7.886E+01    1.1411088E+06   -3.2799919E+03    3.4887168E-03    1.1359177E+06    1.6696248E-03    1.1390342E+06
   -3.03   500.000    7.756E+01    1.1258065E+06   -3.7107161E+03    3.1874209E-03    1.1200477E+06    1.8818338E-03    1.1235329E+06
   -3.02   500.000    7.620E+01    1.1141646E+06   -4.1726789E+03    2.9339557E-03    1.1077080E+06    2.1171176E-03    1.1116999E+06
   -3.01   500.000    7.478E+01    1.1056765E+06   -4.6253084E+03    2.7116559E-03    1.0983917E+06    2.3732930E-03    1.1030034E+06
   -3.00   500.000    7.329E+01    1.0997236E+06   -5.0251105E+03    2.4989910E-03    1.0914922E+06    2.6460578E-03    1.0968016E+06
   -2.99   500.000    7.173E+01    1.0957114E+06   -5.3318507E+03    2.2726227E-03    1.0864417E+06    2.9271128E-03    1.0924814E+06
   -2.98   500.000    7.010E+01    1.0931852E+06   -5.5151180E+03    2.0100245E-03    1.0828266E+06    3.2025016E-03    1.0895773E+06
   -2.97   500.000    6.839E+01    1.0919022E+06   -5.5592909E+03    1.6916060E-03    1.0804570E+06    3.4522928E-03    1.0878451E+06
   -2.96   500.000    6.660E+01    1.0918503E+06   -5.4653744E+03    1.3023234E-03    1.0793825E+06    3.6522790E-03    1.0872835E+06
   -2.95   500.000    6.472E+01    1.0932212E+06   -5.2494236E+03    8.3271435E-04    1.0798587E+06    3.7775189E-03    1.0881042E+06
   -2.94   500.000    6.276E+01    1.0963537E+06   -4.9385592E+03    2.7928257E-04    1.0822845E+06    3.8067817E-03    1.0906715E+06
   -2.93   500.000    6.071E+01    1.1016664E+06   -4.5661336E+03   -3.5573822E-04    1.0871275E+06    3.7266266E-03    1.0954277E+06
   -2.92   500.000    5.857E+01    1.1095927E+06   -4.1672762E+03   -1.0650881E-03    1.0948526E+06    3.5340297E-03    1.1028216E+06
   -2.91   500.000    5.636E+01    1.1205226E+06   -3.7752942E+03   -1.8374490E-03    1.1058569E+06    3.2369276E-03    1.1132449E+06
   -2.90   500.000    5.408E+01    1.1347466E+06   -3.4188083E+03   -2.6585248E-03    1.1204125E+06    2.8525593E-03    1.1269755E+06
   -2.89   500.000    5.174E+01    1.1524011E+06   -3.1193554E+03   -3.5121525E-03    1.1386120E+06    2.4039660E-03    1.1441239E+06
   -2.88   500.000    4.935E+01    1.1734154E+06   -2.8894151E+03   -4.3813695E-03    1.1603226E+06    1.9154084E-03    1.1645861E+06
   -2.87   500.000    4.694E+01    1.1974716E+06   -2.7311751E+03   -5.2492862E-03    1.1851547E+06    1.4077200E-03    1.1880083E+06
   -2.86   500.000    4.451E+01    1.2239906E+06   -2.6365277E+03   -6.0995335E-03    1.2124596E+06    8.9459204E-04    1.2137799E+06
   -2.85   500.000    4.210E+01    1.2521571E+06   -2.5886199E+03   -6.9160752E-03    1.2413633E+06    3.8048049E-04    1.2410636E+06
   -2.84   500.000    3.972E+01    1.2809844E+06   -2.5647673E+03   -7.6823759E-03    1.2708384E+06   -1.3962350E-04    1.2688661E+06
   -2.83   500.000    3.739E+01    1.3094091E+06   -2.5399959E+03   -8.3802484E-03    1.2998013E+06   -6.7868122E-04    1.2961364E+06
   -2.82   500.000    3.513E+01    1.3363951E+06   -2.4902668E+03   -8.9890020E-03    1.3272156E+06   -1.2546348E-03    1.3218735E+06
   -2.81   500.000    3.295E+01    1.3610262E+06   -2.3947700E+03   -9.4855700E-03    1.3521815E+06   -1.8862887E-03    1.3452182E+06
   -2.80   500.000    3.088E+01    1.3825706E+06   -2.2373223E+03   -9.8460245E-03    1.3739940E+06   -2.5884324E-03    1.3655129E+06
   -2.79   500.000    2.892E+01    1.4005104E+06   -2.0074222E+03   -1.0048385E-02    1.3921675E+06   -3.3668192E-03    1.3823238E+06
   -2.78   500.000    2.706E+01    1.4145410E+06   -1.7015250E+03   -1.0076120E-02    1.4064289E+06   -4.2139003E-03    1.3954304E+06
   -2.77   500.000    2.533E+01    1.4245488E+06   -1.3246328E+03   -9.9214274E-03    1.4166926E+06   -5.1063675E-03    1.4047935E+06
   -2.76   500.000    2.371E+01    1.4305761E+06   -8.9169437E+02   -9.5873687E-03    1.4230227E+06   -6.0054118E-03    1.4105136E+06
   -2.75   500.000    2.220E+01    1.4327794E+06   -4.2796327E+02   -9.0882712E-03    1.4255918E+06   -6.8601390E-03    1.4127843E+06
   -2.74   500.000    2.080E+01    1.4313805E+06    3.2454966E+01   -8.4483535E-03    1.4246307E+06   -7.6139128E-03    1.4118419E+06
   -2.73   500.000    1.950E+01    1.4266114E+06    4.5022385E+02   -7.6990948E-03    1.4203737E+06   -8.2126728E-03    1.4079100E+06
   -2.72   500.000    1.830E+01    1.4186588E+06    7.8632188E+02   -6.8761679E-03    1.4130013E+06   -8.6137021E-03    1.4011448E+06
   -2.71   500.000    1.718E+01    1.4076217E+06    1.0085800E+03   -6.0166801E-03    1.4025970E+06   -8.7930823E-03    1.3915948E+06
   -2.70   500.000    1.615E+01    1.3934971E+06    1.0976102E+03   -5.1570984E-03    1.3891327E+06   -8.7503032E-03    1.3791905E+06
   -2.69   500.000    1.519E+01    1.3762040E+06    1.0502250E+03   -4.3317953E-03    1.3724960E+06   -8.5091571E-03    1.3637749E+06
   -2.68   500.000    1.429E+01    1.3556448E+06    8.7898020E+02   -3.5718264E-03    1.3525557E+06   -8.1148855E-03    1.3451722E+06
   -2.67   500.000    1.346E+01    1.3317888E+06    6.0794849E+02   -2.9034880E-03    1.3292497E+06   -7.6282621E-03    1.3232764E+06
   -2.66   500.000    1.268E+01    1.3047552E+06    2.6653643E+02   -2.3464245E-03    1.3026732E+06   -7.1176640E-03    1.2981389E+06
   -2.65   500.000    1.195E+01    1.2748725E+06   -1.1603733E+02   -1.9115230E-03    1.2731390E+06   -6.6502796E-03    1.2700275E+06
   -2.64   500.000    1.127E+01    1.2426925E+06   -5.1372129E+02   -1.5992724E-03    1.2411913E+06   -6.2835664E-03    1.2394407E+06
   -2.63   500.000    1.063E+01    1.2089459E+06   -9.0392076E+02   -1.3993855E-03    1.2075607E+06   -6.0580136E-03    1.2070654E+06
   -2.62   500.000    1.003E+01    1.1744419E+06   -1.2664499E+03   -1.2920868E-03    1.1730619E+06   -5.9921198E-03    1.1736792E+06
   -2.61   500.000    9.464E+00    1.1399301E+06   -1.5828616E+03   -1.2507806E-03    1.1384558E+06   -6.0802108E-03    1.1400186E+06
   -2.60   500.000    8.928E+00    1.1059645E+06   -1.8371429E+03   -1.2453145E-03    1.1043130E+06   -6.2933577E-03    1.1066462E+06
   -2.59   500.000    8.422E+00    1.0728126E+06   -2.0176641E+03   -1.2451498E-03    1.0709215E+06   -6.5833262E-03    1.0738599E+06
   -2.58   500.000    7.942E+00    1.0404380E+06   -2.1195147E+03   -1.2223317E-03    1.0382671E+06   -6.8892320E-03    1.0416712E+06
   -2.57   500.000    7.486E+00    1.0085599E+06   -2.1461855E+03   -1.1546519E-03    1.0060882E+06   -7.1462769E-03    1.0098547E+06
   -2.56   500.000    7.054E+00    9.7676036E+05   -2.1097853E+03   -1.0292619E-03    9.7397989E+05   -7.2954853E-03    9.7804436E+05
   -2.55   500.000    6.643E+00    9.4459729E+05   -2.0293373E+03   -8.4618875E-04    9.4150493E+05   -7.2928513E-03    9.4583724E+05
   -2.54   500.000    6.252E+00    9.1168635E+05   -1.9271283E+03   -6.2030720E-04    9.0827689E+05   -7.1160521E-03    9.1287180E+05
   -2.53   500.000    5.880E+00    8.7773681E+05   -1.8236905E+03   -3.8010445E-04    8.7400064E+05   -6.7672170E-03    8.7886552E+05
   -2.52   500.000    5.525E+00    8.4255083E+05   -1.7327307E+03   -1.6244166E-04    8.3847748E+05   -6.2712099E-03    8.4362006E+05
   -2.51   500.000    5.188E+00    8.0600933E+05   -1.6577820E+03   -4.1679835E-06    8.0159567E+05   -5.6701345E-03    8.0701338E+05
   -2.50   500.000    4.867E+00    7.6806490E+05   -1.5920214E+03    6.6975464E-05    7.6332487E+05   -5.0157168E-03    7.6899699E+05
   -2.49   500.000    4.561E+00    7.2874906E+05   -1.5214838E+03    3.9126694E-05    7.2372098E+05   -4.3614110E-03    7.2960437E+05
   -2.48   500.000    4.270E+00    6.8818638E+05   -1.4304051E+03   -8.1499936E-05    6.8293481E+05   -3.7555621E-03    6.8896353E+05
   -2.47   500.000    3.993E+00    6.4660150E+05   -1.3065639E+03   -2.7343041E-04    6.4121258E+05   -3.2362220E-03    6.4730135E+05
   -2.46   500.000    3.730E+00    6.0430778E+05   -1.1447575E+03   -5.0628037E-04    5.9887949E+05   -2.8277524E-03    6.0493016E+05
   -2.45   500.000    3.481E+00    5.6167630E+05   -9.4764906E+02   -7.4805570E-04    5.5630654E+05   -2.5392867E-03    5.6221649E+05
   -2.44   500.000    3.244E+00    5.1909393E+05   -7.2439626E+02   -9.7098510E-04    5.1386997E+05   -2.3651784E-03    5.1954096E+05
   -2.43   500.000    3.021E+00    4.7692490E+05   -4.8810431E+02   -1.1546308E-03    4.7191671E+05   -2.2874269E-03    4.7726300E+05
   -2.42   500.000    2.811E+00    4.3548856E+05   -2.5312706E+02   -1.2864375E-03    4.3074707E+05   -2.2796886E-03    4.3570133E+05
   -2.41   500.000    2.614E+00    3.9505817E+05   -3.2851769E+01   -1.3607846E-03    3.9061752E+05   -2.3120721E-03    3.9513399E+05
   -2.40   500.000    2.429E+00    3.5587602E+05    1.6181389E+02   -1.3776758E-03    3.5175783E+05   -2.3557435E-03    3.5581255E+05
   -2.39   500.000    2.257E+00    3.1817369E+05    3.2328140E+02   -1.3416681E-03    3.1439117E+05   -2.3865243E-03    3.1797985E+05
   -2.38   500.000    2.099E+00    2.8218607E+05    4.4754874E+02   -1.2610155E-03    2.7874659E+05   -2.3870387E-03    2.8188111E+05
   -2.37   500.000    1.953E+00    2.4815282E+05    5.3399436E+02   -1.1467059E-03    2.4505867E+05   -2.3473949E-03    2.4776312E+05
   -2.36   500.000    1.821E+00    2.1630733E+05    5.8480838E+02   -1.0111669E-03    2.1355539E+05   -2.2646932E-03    2.1586229E+05
   -2.35   500.000    1.701E+00    1.8685798E+05    6.0421048E+02   -8.6672540E-04    1.8443907E+05   -2.1417815E-03    1.8638615E+05
   -2.34   500.000    1.594E+00    1.5996797E+05    5.9762564E+02   -7.2414368E-04    1.5786669E+05   -1.9856501E-03    1.5949416E+05
   -2.33   500.000    1.500E+00    1.3573863E+05    5.7095600E+02   -5.9158523E-04    1.3393403E+05   -1.8057486E-03    1.3528243E+05
   -2.32   500.000    1.417E+00    1.1419958E+05    5.3001544E+02   -4.7420476E-04    1.1266641E+05   -1.6124151E-03    1.1377488E+05
   -2.31   500.000    1.346E+00    9.5306889E+04    4.8012858E+02   -3.7433495E-04    9.4017214E+04   -1.4155519E-03    9.4922284E+04
   -2.30   500.000    1.285E+00    7.8948779E+04    4.2586875E+02   -2.9207616E-04    7.7873648E+04   -1.2236511E-03    7.8608381E+04
   -2.29   500.000    1.234E+00    6.4957531E+04    3.7091209E+02   -2.2604294E-04    6.4068397E+04   -1.0432278E-03    6.4661989E+04
   -2.28   500.000    1.190E+00    5.3125117E+04    3.1799511E+02   -1.7406435E-04    5.2394941E+04   -8.7864917E-04    5.2872623E+04
   -2.27   500.000    1.154E+00    4.3220013E+04    2.6896252E+02   -1.3372355E-04    4.2624000E+04   -7.3228150E-04    4.3007189E+04
   -2.26   500.000    1.125E+00    3.5002854E+04    2.2488389E+02   -1.0270665E-04    3.4518864E+04   -6.0483772E-04    3.4825479E+04
   -2.25   500.000    1.100E+00    2.8239349E+04    1.8620995E+02   -7.8985624E-05    2.7848040E+04   -4.9580703E-04    2.8092895E+04
   -2.24   500.000    1.081E+00    2.2709686E+04    1.5293868E+02   -6.0882522E-05    2.2394462E+04   -4.0387485E-04    2.2589693E+04
   -2.23   500.000    1.065E+00    1.8214449E+04    1.2476819E+02   -4.7062069E-05    1.7961283E+04   -3.2727853E-04    1.8116758E+04
   -2.22   500.000    1.052E+00    1.4577527E+04    1.0122266E+02   -3.6489145E-05    1.4374706E+04   -2.6407740E-04    1.4498401E+04
   -2.21   500.000    1.041E+00    1.1646711E+04    8.1747148E+01   -2.8374697E-05    1.1484550E+04   -2.1233862E-04    1.1582889E+04
   -2.20   500.000    1.033E+00    9.2927173E+03    6.5772875E+01   -2.2123086E-05    9.1632785E+03   -1.7025203E-04    9.2414121E+03
   -2.19   500.000    1.026E+00    7.4072697E+03    5.2758185E+01   -1.7286647E-05    7.3040847E+03   -1.3619132E-04    7.3661356E+03
   -2.18   500.000    1.021E+00    5.9007031E+03    4.2211184E+01   -1.3529062E-05    5.8185320E+03   -1.0873786E-04    5.8677917E+03
   -2.17   500.000    1.016E+00    4.6994476E+03    3.3699617E+01   -1.0597019E-05    4.6340632E+03   -8.6680874E-05    4.6731560E+03
   -2.16   500.000    1.013E+00    3.7435951E+03    2.6852532E+01   -8.2988374E-06    3.6915986E+03   -6.9003585E-05    3.7226140E+03
   -2.15   500.000    1.010E+00    2.9846730E+03    2.1357098E+01   -6.4885743E-06    2.9433393E+03   -5.4862671E-05    2.9679395E+03
   -2.14   500.000    1.008E+00    2.3836828E+03    1.6952886E+01   -5.0542843E-06    2.3508314E+03   -4.3565183E-05    2.3703372E+03
   -2.13   500.000    1.006E+00    1.9094163E+03    1.3425153E+01   -3.9093503E-06    1.8833050E+03   -3.4545749E-05    1.8987655E+03
   -2.12   500.000    1.005E+00    1.5370414E+03    1.0598007E+01   -2.9860549E-06    1.5162797E+03   -2.7345484E-05    1.5285276E+03
   -2.11   500.000    1.004E+00    1.2469338E+03    8.3279936E+00   -2.2307695E-06    1.2304124E+03   -2.1593249E-05    1.2401079E+03
   -2.10   500.000    1.003E+00    1.0237266E+03    6.4983241E+00   -1.6003080E-06    1.0105605E+03   -1.6989481E-05    1.0182266E+03
   -2.09   500.000    1.002E+00    8.5554965E+02    5.0138322E+00   -1.0591117E-06    8.4503213E+02   -1.3292461E-05    8.5108260E+02
   -2.08   500.000    1.002E+00    7.3343187E+02    3.7966412E+00   -5.7702311E-07    7.2499742E+02   -1.0306828E-05    7.2975909E+02
   -2.07   500.000    1.001E+00    6.5084369E+02    2.7824748E+00   -1.2747041E-07    6.4403827E+02   -7.8740072E-06    6.4776843E+02
   -2.06   500.000    1.001E+00    6.0336062E+02    1.9175205E+00    3.1407379E-07    5.9781760E+02   -5.8642770E-06    6.0071788E+02
   -2.05   500.000    1.000E+00    5.8843345E+02    1.1557477E+00    7.7146233E-07    5.8385408E+02   -4.1701640E-06    5.8608132E+02
   -2.04   500.000    9.999E-01    6.0525467E+02    4.5658350E-01    1.2691554E-06    6.0139219E+02   -2.7009033E-06    6.0306693E+02
   -2.03   500.000    9.995E-01    6.5471482E+02   -2.1714181E-01    1.8334816E-06    6.5136135E+02   -1.3777223E-06    6.5257431E+02
   -2.02   500.000    9.990E-01    7.3944644E+02   -9.0106364E-01    2.4939333E-06    7.3642194E+02   -1.2973560E-07    7.3723900E+02
   -2.01   500.000    9.986E-01    8.6395707E+02   -1.6310350E+00    3.2845383E-06    8.6109994E+02    1.1097391E-06    8.6156572E+02
   -2.00   500.000    9.980E-01    1.0348565E+03   -2.4448203E+00    4.2453370E-06    1.0320153E+03    2.4066127E-06    1.0321557E+03
   -1.99   500.000    9.973E-01    1.2611872E+03   -3.3837720E+00    5.4239689E-06    1.2582129E+03    3.8293530E-06    1.2580366E+03
   -1.98   500.000    9.965E-01    1.5548696E+03   -4.4945065E+00    6.8773365E-06    1.5516089E+03    5.4523480E-06    1.5511082E+03
   -1.97   500.000    9.955E-01    1.9312784E+03   -5.8305598E+00    8.6732589E-06    1.9275667E+03    7.3594233E-06    1.9267172E+03
   -1.96   500.000    9.943E-01    2.4099654E+03   -7.4539471E+00    1.0891927E-05    2.4056204E+03    9.6476230E-06    2.4043807E+03
   -1.95   500.000    9.927E-01    3.0155481E+03   -9.4364670E+00    1.3626835E-05    3.0103639E+03    1.2431346E-05    3.0086740E+03
   -1.94   500.000    9.908E-01    3.7787781E+03   -1.1860462E+01    1.6984633E-05    3.7725198E+03    1.5846916E-05    3.7702995E+03
   -1.93   500.000    9.884E-01    4.7377984E+03   -1.4818574E+01    2.1083055E-05    4.7301980E+03    2.0057670E-05    4.7273448E+03
   -1.92   500.000    9.854E-01    5.9395839E+03   -1.8411784E+01    2.6045616E-05    5.9303394E+03    2.5259655E-05    5.9267270E+03
   -1.91   500.000    9.817E-01    7.4415384E+03   -2.2744735E+01    3.1991301E-05    7.4303168E+03    3.1688144E-05    7.4257938E+03
   -1.90   500.000    9.770E-01    9.3131835E+03   -2.7916989E+01    3.9016869E-05    9.2996314E+03    3.9625355E-05    9.2940221E+03
   -1.89   500.000    9.713E-01    1.1637828E+04   -3.4008618E+01    4.7169015E-05    1.1621593E+04    4.9410191E-05    1.1614701E+04
   -1.88   500.000    9.641E-01    1.4514041E+04   -4.1058468E+01    5.6403774E-05    1.4494805E+04    6.1451407E-05    1.4486424E+04
   -1.87   500.000    9.554E-01    1.8056682E+04   -4.9033859E+01    6.6531856E-05    1.8034218E+04    7.6246398E-05    1.8024147E+04
   -1.86   500.000    9.446E-01    2.2397173E+04   -5.7791801E+01    7.7152086E-05    2.2371418E+04    9.4408288E-05    2.2359491E+04
   -1.85   500.000    9.315E-01    2.7682680E+04   -6.7034095E+01    8.7581650E-05    2.7653823E+04    1.1670339E-04    2.7639952E+04
   -1.84   500.000    9.156E-01    3.4073885E+04   -7.6262089E+01    9.6801772E-05    3.4042462E+04    1.4409793E-04    3.4026692E+04
   -1.83   500.000    8.965E-01    4.1741172E+04   -8.4740156E+01    1.0344908E-04    4.1708137E+04    1.7780606E-04    4.1690705E+04
   -1.82   500.000    8.739E-01    5.0859279E+04   -9.1478558E+01    1.0589114E-04    5.0826014E+04    2.1932155E-04    5.0807396E+04
   -1.81   500.000    8.472E-01    6.1600711E+04   -9.5243875E+01    1.0242082E-04    6.1568928E+04    2.7040853E-04    6.1549837E+04
   -1.80   500.000    8.160E-01    7.4128414E+04   -9.4598452E+01    9.1579266E-05    7.4099901E+04    3.3303370E-04    7.4081199E+04
   -1.79   500.000    7.800E-01    8.8588206E+04   -8.7963277E+01    7.2568847E-05    8.8564424E+04    4.0925268E-04    8.8546892E+04
   -1.78   500.000    7.389E-01    1.0510127E+05   -7.3699435E+01    4.5656415E-05    1.0508283E+05    5.0111117E-04    1.0506679E+05
   -1.77   500.000    6.925E-01    1.2375682E+05   -5.0216906E+01    1.2415076E-05    1.2374298E+05    6.1064598E-04    1.2372779E+05
   -1.76   500.000    6.407E-01    1.4460536E+05   -1.6137853E+01   -2.4371874E-05    1.4459364E+05    7.4001032E-04    1.4457718E+05
   -1.75   500.000    5.833E-01    1.6765371E+05    2.9458704E+01   -6.1317024E-05    1.6763979E+05    8.9156878E-04    1.6761807E+05
   -1.74   500.000    5.204E-01    1.9286454E+05    8.6722834E+01   -9.5688079E-05    1.9284234E+05    1.0675844E-03    1.9280952E+05
   -1.73   500.000    4.520E-01    2.2016328E+05    1.5472817E+02   -1.2738784E-04    2.2012532E+05    1.2690420E-03    2.2007427E+05
   -1.72   500.000    3.783E-01    2.4945456E+05    2.3129895E+02   -1.6154169E-04    2.4939229E+05    1.4933960E-03    2.4931595E+05
   -1.71   500.000    2.994E-01    2.8064610E+05    3.1307516E+02   -2.1125566E-04    2.8055019E+05    1.7315945E-03    2.8044357E+05
   -1.70   500.000    2.154E-01    3.1367330E+05    3.9583974E+02   -2.9972030E-04    3.1353386E+05    1.9653351E-03    3.1339654E+05
   -1.69   500.000    1.265E-01    3.4851491E+05    4.7503379E+02   -4.6060230E-04    3.4832176E+05    2.1658021E-03    3.4816019E+05
   -1.68   500.000    3.302E-02    3.8519075E+05    5.4632383E+02   -7.3583402E-04    3.8493391E+05    2.2949097E-03    3.8476282E+05
   -1.67   500.000   -6.501E-02    4.2373842E+05    6.0608307E+02   -1.1705582E-03    4.2340890E+05    2.3094169E-03    4.2325140E+05
   -1.66   500.000   -1.674E-01    4.6417314E+05    6.5170529E+02   -1.8059073E-03    4.6376425E+05    2.1674368E-03    4.6365026E+05
   -1.65   500.000   -2.742E-01    5.0644158E+05    6.8175722E+02   -2.6710719E-03    5.0595055E+05    1.8361011E-03    5.0591414E+05
   -1.64   500.000   -3.852E-01    5.5038320E+05    6.9603876E+02   -3.7763363E-03    5.4981283E+05    1.2986777E-03    5.4988932E+05
   -1.63   500.000   -5.004E-01    5.9571174E+05    6.9560745E+02   -5.1083334E-03    5.9507192E+05    5.5949059E-04    5.9529565E+05
   -1.62   500.000   -6.197E-01    6.4202600E+05    6.8273527E+02   -6.6280183E-03    6.4133436E+05   -3.5437410E-04    6.4173800E+05
   -1.61   500.000   -7.431E-01    6.8885224E+05    6.6067211E+02   -8.2713517E-03    6.8813349E+05   -1.3946141E-03    6.8874865E+05
   -1.60   500.000   -8.705E-01    7.3571313E+05    6.3308132E+02   -9.9527190E-03    7.3499628E+05   -2.4957699E-03    7.3585472E+05
   -1.59   500.000   -1.002E+00    7.8221027E+05    6.0312544E+02   -1.1571430E-02    7.8152357E+05   -3.5809561E-03    7.8265742E+05
   -1.58   500.000   -1.136E+00    8.2810243E+05    5.7237622E+02   -1.3021521E-02    8.2746635E+05   -4.5689176E-03    8.2890663E+05
   -1.57   500.000   -1.274E+00    8.7336058E+05    5.3991041E+02   -1.4204115E-02    8.7278046E+05   -5.3824948E-03    8.7455427E+05
   -1.56   500.000   -1.416E+00    9.1818454E+05    5.0202400E+02   -1.5040275E-02    9.1764521E+05   -5.9583094E-03    9.1977294E+05
   -1.55   500.000   -1.560E+00    9.6297269E+05    4.5287549E+02   -1.5481659E-02    9.6243734E+05   -6.2565533E-03    9.6493185E+05
   -1.54   500.000   -1.707E+00    1.0082453E+06    3.8606145E+02   -1.5517201E-02    1.0076598E+06   -6.2689247E-03    1.0105280E+06
   -1.53   500.000   -1.857E+00    1.0545315E+06    2.9675029E+02   -1.5175727E-02    1.0538333E+06   -6.0227234E-03    1.0570792E+06
   -1.52   500.000   -2.010E+00    1.1022359E+06    1.8373245E+02   -1.4525534E-02    1.1013657E+06   -5.5798345E-03    1.1049929E+06
   -1.51   500.000   -2.166E+00    1.1515084E+06    5.0720797E+01   -1.3671350E-02    1.1504214E+06   -5.0301697E-03    1.1544325E+06
   -1.50   500.000   -2.326E+00    1.2021403E+06   -9.3547760E+01   -1.2747341E-02    1.2008142E+06   -4.4796655E-03    1.2052075E+06
   -1.49   500.000   -2.489E+00    1.2535116E+06   -2.3652336E+02   -1.1903622E-02    1.2519506E+06   -4.0334635E-03    1.2567134E+06
   -1.48   500.000   -2.656E+00    1.3046109E+06   -3.6416164E+02   -1.1284699E-02    1.3028433E+06   -3.7759624E-03    1.3079452E+06
   -1.47   500.000   -2.826E+00    1.3541334E+06   -4.6388902E+02   -1.1001560E-02    1.3522039E+06   -3.7510598E-03    1.3575933E+06
   -1.46   500.000   -3.000E+00    1.4006452E+06   -5.2754567E+02   -1.1103133E-02    1.3986035E+06   -3.9472207E-03    1.4042085E+06
   -1.45   500.000   -3.177E+00    1.4427817E+06   -5.5350162E+02   -1.1555449E-02    1.4406683E+06   -4.2919310E-03    1.4464061E+06
   -1.44   500.000   -3.357E+00    1.4794341E+06   -5.4720923E+02   -1.2236161E-02    1.4772687E+06   -4.6581877E-03    1.4830594E+06
   -1.43   500.000   -3.540E+00    1.5098851E+06   -5.1985604E+02   -1.2948226E-02    1.5076591E+06   -4.8825619E-03    1.5134418E+06
   -1.42   500.000   -3.726E+00    1.5338713E+06   -4.8545471E+02   -1.3450769E-02    1.5315458E+06   -4.7912828E-03    1.5372906E+06
   -1.41   500.000   -3.914E+00    1.5515717E+06   -4.5733097E+02   -1.3500033E-02    1.5490820E+06   -4.2288902E-03    1.5547924E+06
   -1.40   500.000   -4.105E+00    1.5635435E+06   -4.4516888E+02   -1.2890803E-02    1.5608054E+06   -3.0838326E-03    1.5665092E+06
   -1.39   500.000   -4.297E+00    1.5706288E+06   -4.5342162E+02   -1.1489480E-02    1.5675461E+06   -1.3067770E-03    1.5732774E+06
   -1.38   500.000   -4.491E+00    1.5738562E+06   -4.8123489E+02   -9.2532768E-03    1.5703268E+06    1.0805068E-03    1.5761043E+06
   -1.37   500.000   -4.687E+00    1.5743471E+06   -5.2345469E+02   -6.2339427E-03    1.5702665E+06    3.9860673E-03    1.5760754E+06
   -1.36   500.000   -4.885E+00    1.5732294E+06   -5.7206199E+02   -2.5674301E-03    1.5684939E+06    7.2580188E-03    1.5742762E+06
   -1.35   500.000   -5.085E+00    1.5715575E+06   -6.1749641E+02    1.5474407E-03    1.5660672E+06    1.0703264E-02    1.5717227E+06
   -1.34   500.000   -5.289E+00    1.5702446E+06   -6.4963643E+02    5.8775771E-03    1.5639080E+06    1.4113036E-02    1.5693049E+06
   -1.33   500.000   -5.496E+00    1.5700207E+06   -6.5850398E+02    1.0187255E-02    1.5627608E+06    1.7291963E-02    1.5677530E+06
   -1.32   500.000   -5.706E+00    1.5714322E+06   -6.3492526E+02    1.4268146E-02    1.5631937E+06    2.0085489E-02    1.5676405E+06
   -1.31   500.000   -5.920E+00    1.5748872E+06   -5.7134976E+02    1.7963015E-02    1.5656438E+06    2.2399709E-02    1.5694279E+06
   -1.30   500.000   -6.139E+00    1.5807342E+06   -4.6282527E+02    2.1179071E-02    1.5704922E+06    2.4208616E-02    1.5735324E+06
   -1.29   500.000   -6.361E+00    1.5893431E+06   -3.0785069E+02    2.3888655E-02    1.5781407E+06    2.5546642E-02    1.5803978E+06
   -1.28   500.000   -6.586E+00    1.6011602E+06   -1.0865711E+02    2.6117421E-02    1.5890612E+06    2.6488250E-02    1.5905328E+06
   -1.27   500.000   -6.816E+00    1.6167207E+06    1.2942914E+02    2.7923081E-02    1.6038018E+06    2.7120284E-02    1.6045068E+06
   -1.26   500.000   -7.048E+00    1.6366230E+06    3.9949977E+02    2.9370376E-02    1.6229581E+06    2.7515277E-02    1.6229113E+06
   -1.25   500.000   -7.282E+00    1.6614859E+06    6.9497421E+02    3.0509203E-02    1.6471299E+06    2.7713656E-02    1.6463099E+06
   -1.24   500.000   -7.519E+00    1.6919089E+06    1.0112768E+03    3.1362062E-02    1.6768836E+06    2.7719492E-02    1.6752013E+06
   -1.23   500.000   -7.757E+00    1.7284446E+06    1.3469206E+03    3.1924143E-02    1.7127290E+06    2.7509349E-02    1.7100034E+06
   -1.22   500.000   -7.996E+00    1.7715804E+06    1.7040550E+03    3.2175444E-02    1.7551076E+06    2.7049354E-02    1.7510546E+06
   -1.21   500.000   -8.237E+00    1.8217205E+06    2.0886470E+03    3.2100436E-02    1.8043795E+06    2.6313477E-02    1.7986176E+06
   -1.20   500.000   -8.479E+00    1.8791602E+06    2.5101081E+03    3.1708421E-02    1.8608031E+06    2.5296714E-02    1.8528764E+06
   -1.19   500.000   -8.723E+00    1.9440485E+06    2.9796986E+03    3.1047833E-02    1.9245031E+06    2.4019416E-02    1.9139207E+06
   -1.18   500.000   -8.968E+00    2.0163393E+06    3.5070661E+03    3.0210484E-02    1.9954270E+06    2.2522587E-02    1.9817170E+06
   -1.17   500.000   -9.215E+00    2.0957300E+06    4.0951475E+03    2.9325792E-02    2.0732916E+06    2.0857510E-02    2.0560664E+06
   -1.16   500.000   -9.464E+00    2.1815864E+06    4.7350016E+03    2.8548251E-02    2.1575146E+06    1.9075165E-02    2.1365459E+06
   -1.15   500.000   -9.717E+00    2.2728543E+06    5.4030449E+03    2.8041923E-02    2.2471325E+06    1.7220439E-02    2.2224291E+06
   -1.14   500.000   -9.973E+00    2.3679757E+06    6.0627695E+03    2.7964041E-02    2.3407171E+06    1.5332978E-02    2.3125931E+06
   -1.13   500.000   -1.023E+01    2.4648443E+06    6.6712432E+03    2.8447673E-02    2.4363209E+06    1.3452473E-02    2.4054409E+06
   -1.12   500.000   -1.050E+01    2.5608533E+06    7.1884192E+03    2.9582690E-02    2.5315049E+06    1.1623470E-02    2.4988876E+06
   -1.11   500.000   -1.077E+01    2.6530770E+06    7.5858484E+03    3.1395580E-02    2.6234890E+06    9.8950453E-03    2.5904577E+06
   -1.10   500.000   -1.104E+01    2.7385822E+06    7.8516052E+03    3.3831122E-02    2.7094303E+06    8.3135360E-03    2.6775059E+06
   -1.09   500.000   -1.132E+01    2.8148076E+06    7.9898803E+03    3.6741368E-02    2.7867761E+06    6.9102818E-03    2.7575233E+06
   -1.08   500.000   -1.160E+01    2.8799079E+06    8.0158547E+03    3.9888311E-02    2.8535994E+06    5.6892733E-03    2.8284504E+06
   -1.07   500.000   -1.188E+01    2.9329685E+06    7.9482355E+03    4.2965073E-02    2.9088270E+06    4.6203039E-03    2.8889167E+06
   -1.06   500.000   -1.217E+01    2.9740482E+06    7.8026555E+03    4.5635952E-02    2.9523142E+06    3.6414377E-03    2.9383621E+06
   -1.05   500.000   -1.246E+01    3.0040809E+06    7.5887527E+03    4.7589261E-02    2.9847882E+06    2.6710104E-03    2.9770484E+06
   -1.04   500.000   -1.275E+01    3.0247152E+06    7.3121241E+03    4.8590972E-02    3.0077237E+06    1.6256129E-03    3.0060074E+06
   -1.03   500.000   -1.305E+01    3.0381655E+06    6.9799954E+03    4.8524848E-02    3.0232160E+06    4.3832390E-04    3.0269747E+06
   -1.02   500.000   -1.334E+01    3.0471063E+06    6.6074932E+03    4.7407856E-02    3.0338791E+06   -9.2815231E-04    3.0423227E+06
   -1.01   500.000   -1.364E+01    3.0545783E+06    6.2210794E+03    4.5377464E-02    3.0427422E+06   -2.4763254E-03    3.0549667E+06
   -1.00   500.000   -1.394E+01    3.0638426E+06    5.8573743E+03    4.2656594E-02    3.0530842E+06   -4.1766543E-03    3.0681890E+06
   -0.99   500.000   -1.424E+01    3.0781251E+06    5.5582886E+03    3.9508383E-02    3.0681610E+06   -5.9761900E-03    3.0853411E+06
   -0.98   500.000   -1.454E+01    3.1002427E+06    5.3653869E+03    3.6194085E-02    3.0908193E+06   -7.8107010E-03    3.1094304E+06
   -0.97   500.000   -1.484E+01    3.1321663E+06    5.3164621E+03    3.2943606E-02    3.1230528E+06   -9.6180633E-03    3.1426498E+06
   -0.96   500.000   -1.514E+01    3.1746178E+06    5.4454037E+03    2.9941686E-02    3.1655995E+06   -1.1350483E-02    3.1859518E+06
   -0.95   500.000   -1.545E+01    3.2268100E+06    5.7838164E+03    2.7326400E-02    3.2176851E+06   -1.2982402E-02    3.2387707E+06
   -0.94   500.000   -1.576E+01    3.2864132E+06    6.3611975E+03    2.5192976E-02    3.2769918E+06   -1.4510878E-02    3.2989701E+06
   -0.93   500.000   -1.608E+01    3.3497817E+06    7.2009753E+03    2.3595982E-02    3.3398866E+06   -1.5947097E-02    3.3630505E+06
   -0.92   500.000   -1.640E+01    3.4124279E+06    8.3121701E+03    2.2546450E-02    3.4018963E+06   -1.7301529E-02    3.4266039E+06
   -0.91   500.000   -1.673E+01    3.4696888E+06    9.6793536E+03    2.2005738E-02    3.4583712E+06   -1.8569081E-02    3.4849675E+06
   -0.90   500.000   -1.706E+01    3.5174865E+06    1.1255130E+04    2.1882118E-02    3.5052454E+06   -1.9721999E-02    3.5339869E+06
   -0.89   500.000   -1.740E+01    3.5530520E+06    1.2958606E+04    2.2037101E-02    3.5397600E+06   -2.0715433E-02    3.5707600E+06
   -0.88   500.000   -1.774E+01    3.5754586E+06    1.4680880E+04    2.2305199E-02    3.5610001E+06   -2.1504639E-02    3.5942084E+06
   -0.87   500.000   -1.809E+01    3.5858329E+06    1.6296127E+04    2.2524711E-02    3.5701129E+06   -2.2066680E-02    3.6053324E+06
   -0.86   500.000   -1.844E+01    3.5871751E+06    1.7675655E+04    2.2571182E-02    3.5701370E+06   -2.2416894E-02    3.6070685E+06
   -0.85   500.000   -1.880E+01    3.5838216E+06    1.8702663E+04    2.2382749E-02    3.5654726E+06   -2.2612827E-02    3.6037716E+06
   -0.84   500.000   -1.915E+01    3.5806785E+06    1.9286133E+04    2.1969096E-02    3.5611194E+06   -2.2744476E-02    3.6004488E+06
   -0.83   500.000   -1.951E+01    3.5824183E+06    1.9372488E+04    2.1401693E-02    3.5618668E+06   -2.2915848E-02    3.6019368E+06
   -0.82   500.000   -1.988E+01    3.5928219E+06    1.8953087E+04    2.0789250E-02    3.5716249E+06   -2.3225556E-02    3.6122168E+06
   -0.81   500.000   -2.025E+01    3.6143962E+06    1.8065408E+04    2.0246140E-02    3.5930251E+06   -2.3752549E-02    3.6339999E+06
   -0.80   500.000   -2.061E+01    3.6483009E+06    1.6786783E+04    1.9862259E-02    3.6273296E+06   -2.4548859E-02    3.6686216E+06
   -0.79   500.000   -2.099E+01    3.6945318E+06    1.5221730E+04    1.9681193E-02    3.6745991E+06   -2.5637538E-02    3.7161944E+06
   -0.78   500.000   -2.136E+01    3.7522454E+06    1.3485919E+04    1.9691047E-02    3.7340081E+06   -2.7012634E-02    3.7759066E+06
   -0.77   500.000   -2.174E+01    3.8200986E+06    1.1690388E+04    1.9829611E-02    3.8041803E+06   -2.8639062E-02    3.8463473E+06
   -0.76   500.000   -2.213E+01    3.8965058E+06    9.9285072E+03    2.0002504E-02    3.8834510E+06   -3.0452382E-02    3.9257683E+06
   -0.75   500.000   -2.252E+01    3.9797813E+06    8.2665379E+03    2.0109735E-02    3.9700204E+06   -3.2360268E-02    4.0122532E+06
   -0.74   500.000   -2.292E+01    4.0681903E+06    6.7376929E+03    2.0073217E-02    4.0620203E+06   -3.4248098E-02    4.1038123E+06
   -0.73   500.000   -2.332E+01    4.1599583E+06    5.3399749E+03    1.9856556E-02    4.1575410E+06   -3.5990168E-02    4.1984420E+06
   -0.72   500.000   -2.373E+01    4.2532774E+06    4.0389917E+03    1.9470367E-02    4.2546521E+06   -3.7465983E-02    4.2941710E+06
   -0.71   500.000   -2.414E+01    4.3463185E+06    2.7771042E+03    1.8961488E-02    4.3514266E+06   -3.8578687E-02    4.3890940E+06
   -0.70   500.000   -2.456E+01    4.4372475E+06    1.4887882E+03    1.8391013E-02    4.4459674E+06   -3.9271188E-02    4.4813880E+06
   -0.69   500.000   -2.499E+01    4.5242515E+06    1.1936505E+02    1.7810760E-02    4.5364445E+06   -3.9535483E-02    4.5693274E+06
   -0.68   500.000   -2.543E+01    4.6056029E+06   -1.3582247E+03    1.7247797E-02    4.6211672E+06   -3.9412270E-02    4.6513296E+06
   -0.67   500.000   -2.587E+01    4.6797814E+06   -2.9343427E+03    1.6701966E-02    4.6987093E+06   -3.8980484E-02    4.7260595E+06
   -0.66   500.000   -2.632E+01    4.7456519E+06   -4.5645748E+03    1.6154671E-02    4.7680764E+06   -3.8339070E-02    4.7925848E+06
   -0.65   500.000   -2.677E+01    4.8026505E+06   -6.1815901E+03    1.5582799E-02    4.8288649E+06   -3.7584963E-02    4.8505356E+06
   -0.64   500.000   -2.723E+01    4.8509091E+06   -7.7119023E+03    1.4971479E-02    4.8813476E+06   -3.6791511E-02    4.9001996E+06
   -0.63   500.000   -2.770E+01    4.8912618E+06   -9.0910695E+03    1.4322415E-02    4.9264375E+06   -3.5991021E-02    4.9425026E+06
   -0.62   500.000   -2.816E+01    4.9251084E+06   -1.0272559E+04    1.3657932E-02    4.9655190E+06   -3.5164338E-02    4.9788580E+06
   -0.61   500.000   -2.863E+01    4.9541608E+06   -1.1228999E+04    1.3022000E-02    5.0001802E+06   -3.4239659E-02    5.0109133E+06
   -0.60   500.000   -2.910E+01    4.9801326E+06   -1.1947836E+04    1.2478517E-02    5.0319087E+06   -3.3101447E-02    5.0402512E+06
   -0.59   500.000   -2.957E+01    5.0044474E+06   -1.2425118E+04    1.2105396E-02    5.0618269E+06   -3.1607959E-02    5.0681216E+06
   -0.58   500.000   -3.004E+01    5.0280378E+06   -1.2660975E+04    1.1982689E-02    5.0905302E+06   -2.9613412E-02    5.0952661E+06
   -0.57   500.000   -3.051E+01    5.0512718E+06   -1.2658784E+04    1.2174695E-02    5.1180602E+06   -2.6989805E-02    5.1218706E+06
   -0.56   500.000   -3.099E+01    5.0740072E+06   -1.2427793E+04    1.2709254E-02    5.1440018E+06   -2.3644836E-02    5.1476378E+06
   -0.55   500.000   -3.146E+01    5.0957412E+06   -1.1987027E+04    1.3560237E-02    5.1676652E+06   -1.9535421E-02    5.1719406E+06
   -0.54   500.000   -3.194E+01    5.1158093E+06   -1.1367573E+04    1.4639892E-02    5.1882988E+06   -1.4678401E-02    5.1940131E+06
   -0.53   500.000   -3.242E+01    5.1335887E+06   -1.0611148E+04    1.5805210E-02    5.2052912E+06   -9.1594464E-03    5.2131400E+06
   -0.52   500.000   -3.289E+01    5.1486657E+06   -9.7650431E+03    1.6877640E-02    5.2183238E+06   -3.1382106E-03    5.2288148E+06
   -0.51   500.000   -3.337E+01    5.1609293E+06   -8.8755589E+03    1.7670773E-02    5.2274485E+06    3.1548725E-03    5.2408405E+06
   -0.50   500.000   -3.385E+01    5.1705743E+06   -7.9828961E+03    1.8018441E-02    5.2330734E+06    9.4344927E-03    5.2493522E+06
   -0.49   500.000   -3.432E+01    5.1780254E+06   -7.1195827E+03    1.7797100E-02    5.2358716E+06    1.5389470E-02    5.2547653E+06
   -0.48   500.000   -3.479E+01    5.1838274E+06   -6.3128482E+03    1.6939658E-02    5.2366513E+06    2.0719586E-02    5.2576818E+06
   -0.47   500.000   -3.527E+01    5.1885517E+06   -5.5898620E+03    1.5440725E-02    5.2362370E+06    2.5170911E-02    5.2587956E+06
   -0.46   500.000   -3.574E+01    5.1927413E+06   -4.9838868E+03    1.3354121E-02    5.2353875E+06    2.8560442E-02    5.2588226E+06
   -0.45   500.000   -3.621E+01    5.1968783E+06   -4.5388759E+03    1.0783129E-02    5.2347427E+06    3.0785319E-02    5.2584479E+06
   -0.44   500.000   -3.668E+01    5.2013353E+06   -4.3097056E+03    7.8640221E-03    5.2347662E+06    3.1818162E-02    5.2582595E+06
   -0.43   500.000   -3.714E+01    5.2062823E+06   -4.3555073E+03    4.7448569E-03    5.2356603E+06    3.1694763E-02    5.2586468E+06
   -0.42   500.000   -3.761E+01    5.2115636E+06   -4.7251820E+03    1.5635449E-03    5.2372576E+06    3.0501334E-02    5.2596703E+06
   -0.41   500.000   -3.807E+01    5.2165951E+06   -5.4372846E+03   -1.5696478E-03    5.2389358E+06    2.8365746E-02    5.2609516E+06
   -0.40   500.000   -3.852E+01    5.2203538E+06   -6.4600933E+03   -4.5809557E-03    5.2396186E+06    2.5452693E-02    5.2616476E+06
   -0.39   500.000   -3.898E+01    5.2215095E+06   -7.6999012E+03   -7.4317462E-03    5.2379113E+06    2.1958903E-02    5.2605612E+06
   -0.38   500.000   -3.943E+01    5.2186976E+06   -9.0045019E+03   -1.0108545E-02    5.2323763E+06    1.8103364E-02    5.2563947E+06
   -0.37   500.000   -3.987E+01    5.2108793E+06   -1.0183969E+04   -1.2608618E-02    5.2218950E+06    1.4109473E-02    5.2480973E+06
   -0.36   500.000   -4.031E+01    5.1976852E+06   -1.1044017E+04   -1.4926413E-02    5.2060206E+06    1.0180365E-02    5.2352099E+06
   -0.35   500.000   -4.075E+01    5.1796308E+06   -1.1422072E+04   -1.7045539E-02    5.1852085E+06    6.4732917E-03    5.2180986E+06
   -0.34   500.000   -4.118E+01    5.1581259E+06   -1.1215636E+04   -1.8938561E-02    5.1608421E+06    3.0813795E-03    5.1979914E+06
   -0.33   500.000   -4.161E+01    5.1352611E+06   -1.0396693E+04   -2.0573662E-02    5.1350352E+06    2.9540014E-05    5.1767966E+06
   -0.32   500.000   -4.203E+01    5.1134315E+06   -9.0116537E+03   -2.1924653E-02    5.1102619E+06   -2.7139138E-03    5.1567529E+06
   -0.31   500.000   -4.245E+01    5.0949017E+06   -7.1701992E+03   -2.2980002E-02    5.0889164E+06   -5.2147707E-03    5.1400062E+06
   -0.30   500.000   -4.287E+01    5.0814194E+06   -5.0269012E+03   -2.3747711E-02    5.0729107E+06   -7.5486355E-03    5.1282251E+06
   -0.29   500.000   -4.328E+01    5.0739620E+06   -2.7582282E+03   -2.4255113E-02    5.0633959E+06   -9.7839583E-03    5.1223381E+06
   -0.28   500.000   -4.369E+01    5.0726579E+06   -5.3703704E+02   -2.4544840E-02    5.0606545E+06   -1.1977297E-02    5.1224432E+06
   -0.27   500.000   -4.410E+01    5.0768858E+06    1.4920605E+03   -2.4669422E-02    5.0641704E+06   -1.4179440E-02    5.1278939E+06
   -0.26   500.000   -4.451E+01    5.0855133E+06    3.2312406E+03   -2.4686489E-02    5.0728453E+06   -1.6445735E-02    5.1375258E+06
   -0.25   500.000   -4.492E+01    5.0972023E+06    4.6367210E+03   -2.4654913E-02    5.0852961E+06   -1.8842426E-02    5.1499548E+06
   -0.24   500.000   -4.533E+01    5.1106885E+06    5.7126536E+03   -2.4630893E-02    5.1001422E+06   -2.1443683E-02    5.1638555E+06
   -0.23   500.000   -4.573E+01    5.1249474E+06    6.4946739E+03   -2.4663278E-02    5.1161984E+06   -2.4319538E-02    5.1781385E+06
   -0.22   500.000   -4.614E+01    5.1392007E+06    7.0302280E+03   -2.4789304E-02    5.1325161E+06   -2.7519568E-02    5.1919746E+06
   -0.21   500.000   -4.655E+01    5.1527701E+06    7.3632563E+03   -2.5033279E-02    5.1482712E+06   -3.1058348E-02    5.2046705E+06
   -0.20   500.000   -4.697E+01    5.1648455E+06    7.5272826E+03   -2.5410055E-02    5.1625536E+06   -3.4906592E-02    5.2154509E+06
   -0.19   500.000   -4.738E+01    5.1742652E+06    7.5457945E+03   -2.5932267E-02    5.1741516E+06   -3.8988843E-02    5.2232398E+06
   -0.18   500.000   -4.781E+01    5.1794043E+06    7.4353688E+03   -2.6617441E-02    5.1814318E+06   -4.3186939E-02    5.2265371E+06
   -0.17   500.000   -4.823E+01    5.1782363E+06    7.2072016E+03   -2.7490150E-02    5.1823802E+06   -4.7348612E-02    5.2234577E+06
   -0.16   500.000   -4.866E+01    5.1685733E+06    6.8658076E+03   -2.8576284E-02    5.1748229E+06   -5.1301051E-02    5.2119484E+06
   -0.15   500.000   -4.910E+01    5.1484331E+06    6.4070467E+03   -2.9890175E-02    5.1567786E+06   -5.4868966E-02    5.1901361E+06
   -0.14   500.000   -4.954E+01    5.1164339E+06    5.8189559E+03   -3.1418954E-02    5.1268482E+06   -5.7895315E-02    5.1567097E+06
   -0.13   500.000   -4.999E+01    5.0721082E+06    5.0874773E+03   -3.3110199E-02    5.0845335E+06   -6.0261515E-02    5.1112293E+06
   -0.12   500.000   -5.045E+01    5.0160556E+06    4.2063125E+03   -3.4867916E-02    5.0303998E+06   -6.1903128E-02    5.0542804E+06
   -0.11   500.000   -5.092E+01    4.9499148E+06    3.1877288E+03   -3.6558671E-02    4.9660575E+06   -6.2817086E-02    4.9874568E+06
   -0.10   500.000   -5.139E+01    4.8761994E+06    2.0704546E+03   -3.8025993E-02    4.8940013E+06   -6.3057585E-02    4.9132129E+06
   -0.09   500.000   -5.187E+01    4.7980718E+06    9.2179544E+02   -3.9108673E-02    4.8173820E+06   -6.2720071E-02    4.8346563E+06
   -0.08   500.000   -5.236E+01    4.7191126E+06   -1.6709132E+02   -3.9658034E-02    4.7397714E+06   -6.1916020E-02    4.7553301E+06
   -0.07   500.000   -5.286E+01    4.6431013E+06   -1.0919757E+03   -3.9550544E-02    4.6649385E+06   -6.0744135E-02    4.6789957E+06
   -0.06   500.000   -5.337E+01    4.5737825E+06   -1.7500749E+03   -3.8694412E-02    4.5966140E+06   -5.9264885E-02    4.6093911E+06
   -0.05   500.000   -5.390E+01    4.5146008E+06   -2.0550142E+03   -3.7031230E-02    4.5382258E+06   -5.7484195E-02    4.5499516E+06
   -0.04   500.000   -5.444E+01    4.4684215E+06   -1.9488377E+03   -3.4535463E-02    4.4926208E+06   -5.5349730E-02    4.5035178E+06
   -0.03   500.000   -5.499E+01    4.4372863E+06   -1.4086844E+03   -3.1214749E-02    4.4618227E+06   -5.2760696E-02    4.4720846E+06
   -0.02   500.000   -5.555E+01    4.4222529E+06   -4.4753809E+02   -2.7112334E-02    4.4468732E+06   -4.9589834E-02    4.4566422E+06
   -0.01   500.000   -5.613E+01    4.4233359E+06    8.8975047E+02   -2.2310346E-02    4.4477750E+06   -4.5713999E-02    4.4571236E+06
    0.00   500.000   -5.671E+01    4.4395367E+06    2.5329888E+03   -1.6930780E-02    4.4635223E+06   -4.1047466E-02    4.4724457E+06
    0.01   500.000   -5.731E+01    4.4689390E+06    4.3937294E+03   -1.1131164E-02    4.4921975E+06   -3.5570724E-02    4.5006163E+06
    0.02   500.000   -5.791E+01    4.5088508E+06    6.3720540E+03   -5.0941525E-03    4.5311139E+06   -2.9348292E-02    4.5388873E+06
    0.03   500.000   -5.853E+01    4.5559795E+06    8.3634773E+03    9.8658469E-04    4.5769927E+06   -2.2531923E-02    4.5839374E+06
    0.04   500.000   -5.915E+01    4.6066286E+06    1.0266914E+04    6.9194640E-03    4.6261634E+06   -1.5349511E-02    4.6320754E+06
    0.05   500.000   -5.977E+01    4.6569115E+06    1.1993891E+04    1.2522289E-02    4.6747792E+06   -8.0831289E-03    4.6794564E+06
    0.06   500.000   -6.040E+01    4.7029837E+06    1.3477491E+04    1.7621559E-02    4.7190498E+06   -1.0410140E-03    4.7223125E+06
    0.07   500.000   -6.103E+01    4.7413039E+06    1.4678097E+04    2.2045887E-02    4.7554972E+06    5.4721528E-03    4.7572080E+06
    0.08   500.000   -6.166E+01    4.7689257E+06    1.5583107E+04    2.5619460E-02    4.7812423E+06    1.1183380E-02    4.7813199E+06
    0.09   500.000   -6.229E+01    4.7838063E+06    1.6199910E+04    2.8162576E-02    4.7943078E+06    1.5875412E-02    4.7927325E+06
    0.10   500.000   -6.292E+01    4.7850945E+06    1.6544448E+04    2.9503760E-02    4.7939042E+06    1.9404355E-02    4.7907085E+06
    0.11   500.000   -6.356E+01    4.7733343E+06    1.6630035E+04    2.9503003E-02    4.7806334E+06    2.1708590E-02    4.7758765E+06
    0.12   500.000   -6.419E+01    4.7505110E+06    1.6461275E+04    2.8080783E-02    4.7565349E+06    2.2807467E-02    4.7502673E+06
    0.13   500.000   -6.483E+01    4.7198802E+06    1.6035691E+04    2.5244822E-02    4.7249123E+06    2.2790108E-02    4.7171399E+06
    0.14   500.000   -6.548E+01    4.6855678E+06    1.5351869E+04    2.1106713E-02    4.6899281E+06    2.1797253E-02    4.6805897E+06
    0.15   500.000   -6.613E+01    4.6520073E+06    1.4419423E+04    1.5882878E-02    4.6560321E+06    2.0001185E-02    4.6450003E+06
    0.16   500.000   -6.678E+01    4.6233426E+06    1.3264771E+04    9.8775703E-03    4.6273595E+06    1.7588797E-02    4.6144652E+06
    0.17   500.000   -6.745E+01    4.6029512E+06    1.1928594E+04    3.4492096E-03    4.6072536E+06    1.4750174E-02    4.5923297E+06
    0.18   500.000   -6.812E+01    4.5931949E+06    1.0455487E+04   -3.0351083E-03    4.5980268E+06    1.1671262E-02    4.5809574E+06
    0.19   500.000   -6.881E+01    4.5954232E+06    8.8811209E+03   -9.2486123E-03    4.6009835E+06    8.5269282E-03    4.5817443E+06
    0.20   500.000   -6.950E+01    4.6101629E+06    7.2245009E+03   -1.4946321E-02    4.6166301E+06    5.4718750E-03    4.5953102E+06
    0.21   500.000   -7.020E+01    4.6373687E+06    5.4908283E+03   -1.9987466E-02    4.6449427E+06    2.6304568E-03    4.6217409E+06
    0.22   500.000   -7.091E+01    4.6766119E+06    3.6849666E+03   -2.4330878E-02    4.6855585E+06    8.9467908E-05    4.6607581E+06
    0.23   500.000   -7.163E+01    4.7271293E+06    1.8295439E+03   -2.8003222E-02    4.7378110E+06   -2.1019385E-03    4.7117383E+06
    0.24   500.000   -7.236E+01    4.7877295E+06   -2.1387126E+01   -3.1049816E-02    4.8006100E+06   -3.9238202E-03    4.7735864E+06
    0.25   500.000   -7.309E+01    4.8566284E+06   -1.7807869E+03   -3.3485228E-02    4.8722432E+06   -5.3707716E-03    4.8445406E+06
    0.26   500.000   -7.383E+01    4.9313262E+06   -3.3416710E+03   -3.5261820E-02    4.9502223E+06   -6.4358089E-03    4.9220289E+06
    0.27   500.000   -7.457E+01    5.0086372E+06   -4.6010117E+03   -3.6267860E-02    5.0312913E+06   -7.0982458E-03    5.0026978E+06
    0.28   500.000   -7.532E+01    5.0849299E+06   -5.4863284E+03   -3.6355624E-02    5.1116634E+06   -7.3198865E-03    5.0826755E+06
    0.29   500.000   -7.608E+01    5.1565552E+06   -5.9759428E+03   -3.5389075E-02    5.1874650E+06   -7.0514224E-03    5.1580453E+06
    0.30   500.000   -7.684E+01    5.2203566E+06   -6.1064938E+03   -3.3294682E-02    5.2552783E+06   -6.2475495E-03    5.2254159E+06
    0.31   500.000   -7.760E+01    5.2741146E+06   -5.9658961E+03   -3.0099303E-02    5.3126292E+06   -4.8857949E-03    5.2824238E+06
    0.32   500.000   -7.837E+01    5.3167977E+06   -5.6746217E+03   -2.5944246E-02    5.3582796E+06   -2.9817601E-03    5.3280196E+06
    0.33   500.000   -7.914E+01    5.3485664E+06   -5.3615913E+03   -2.1071911E-02    5.3922629E+06   -5.9389257E-04    5.3624748E+06
    0.34   500.000   -7.992E+01    5.3705713E+06   -5.1422387E+03   -1.5788468E-02    5.4156931E+06    2.1856805E-03    5.3871436E+06
    0.35   500.000   -8.070E+01    5.3846462E+06   -5.1049738E+03   -1.0411616E-02    5.4304482E+06    5.2527024E-03    5.4040935E+06
    0.36   500.000   -8.148E+01    5.3930013E+06   -5.3084667E+03   -5.2158608E-03    5.4388367E+06    8.5188869E-03    5.4157281E+06
    0.37   500.000   -8.226E+01    5.3979736E+06   -5.7873068E+03   -3.8817265E-04    5.4433110E+06    1.1938852E-02    5.4244798E+06
    0.38   500.000   -8.304E+01    5.4018320E+06   -6.5600370E+03    3.9957116E-03    5.4462381E+06    1.5528665E-02    5.4325866E+06
    0.39   500.000   -8.382E+01    5.4066066E+06   -7.6333409E+03    7.9693429E-03    5.4497046E+06    1.9370564E-02    5.4419220E+06
    0.40   500.000   -8.461E+01    5.4139170E+06   -8.9993854E+03    1.1649275E-02    5.4553362E+06    2.3600735E-02    5.4538472E+06
    0.41   500.000   -8.540E+01    5.4248073E+06   -1.0628009E+04    1.5191513E-02    5.4641403E+06    2.8379864E-02    5.4690797E+06
    0.42   500.000   -8.620E+01    5.4396228E+06   -1.2458811E+04    1.8741416E-02    5.4764046E+06    3.3849869E-02    5.4876068E+06
    0.43   500.000   -8.700E+01    5.4579796E+06   -1.4398436E+04    2.2388623E-02    5.4916959E+06    4.0084422E-02    5.5086917E+06
    0.44   500.000   -8.781E+01    5.4788585E+06   -1.6325484E+04    2.6136671E-02    5.5089842E+06    4.7044280E-02    5.5310059E+06
    0.45   500.000   -8.863E+01    5.5008209E+06   -1.8101510E+04    2.9893065E-02    5.5268785E+06    5.4549553E-02    5.5528820E+06
    0.46   500.000   -8.946E+01    5.5222891E+06   -1.9583826E+04    3.3480572E-02    5.5439113E+06    6.2278438E-02    5.5726252E+06
    0.47   500.000   -9.030E+01    5.5418033E+06   -2.0636192E+04    3.6665584E-02    5.5587825E+06    6.9795665E-02    5.5887873E+06
    0.48   500.000   -9.114E+01    5.5581723E+06   -2.1136586E+04    3.9195863E-02    5.5704849E+06    7.6605517E-02    5.6003144E+06
    0.49   500.000   -9.200E+01    5.5704863E+06   -2.0984813E+04    4.0839027E-02    5.5782902E+06    8.2217084E-02    5.6065376E+06
    0.50   500.000   -9.287E+01    5.5780218E+06   -2.0113892E+04    4.1415145E-02    5.5816342E+06    8.6206411E-02    5.6070450E+06
    0.51   500.000   -9.375E+01    5.5801100E+06   -1.8506492E+04    4.0820443E-02    5.5799733E+06    8.8262684E-02    5.6015123E+06
    0.52   500.000   -9.464E+01    5.5760303E+06   -1.6212444E+04    3.9042130E-02    5.5726727E+06    8.8211918E-02    5.5895644E+06
    0.53   500.000   -9.554E+01    5.5649584E+06   -1.3359116E+04    3.6165219E-02    5.5589507E+06    8.6018672E-02    5.5706961E+06
    0.54   500.000   -9.645E+01    5.5459673E+06   -1.0146333E+04    3.2371214E-02    5.5378774E+06    8.1771695E-02    5.5442538E+06
    0.55   500.000   -9.737E+01    5.5180772E+06   -6.8226046E+03    2.7927377E-02    5.5084262E+06    7.5661709E-02    5.5094730E+06
    0.56   500.000   -9.830E+01    5.4803650E+06   -3.6468502E+03    2.3165190E-02    5.4695929E+06    6.7958975E-02    5.4655846E+06
    0.57   500.000   -9.923E+01    5.4321444E+06   -8.4563145E+02    1.8447736E-02    5.4205932E+06    5.8995116E-02    5.4119998E+06
    0.58   500.000   -1.002E+02    5.3732008E+06    1.4226951E+03    1.4127616E-02    5.3611172E+06    4.9149237E-02    5.3485570E+06
    0.59   500.000   -1.011E+02    5.3040137E+06    3.0881753E+03    1.0499341E-02    5.2915675E+06    3.8834573E-02    5.2757549E+06
    0.60   500.000   -1.020E+02    5.2258646E+06    4.1700078E+03    7.7525116E-03    5.2131762E+06    2.8480968E-02    5.1948682E+06
    0.61   500.000   -1.030E+02    5.1407442E+06    4.7593205E+03    5.9340778E-03    5.1279108E+06    1.8510846E-02    5.1078555E+06
    0.62   500.000   -1.039E+02    5.0510341E+06    4.9899074E+03    4.9285030E-03    5.0381513E+06    9.3105519E-03    5.0170413E+06
    0.63   500.000   -1.048E+02    4.9590340E+06    5.0055316E+03    4.4630499E-03    4.9462088E+06    1.2021608E-03    4.9246448E+06
    0.64   500.000   -1.057E+02    4.8664727E+06    4.9323931E+03    4.1414867E-03    4.8538272E+06   -5.5784288E-03    4.8322987E+06
    0.65   500.000   -1.067E+02    4.7741643E+06    4.8624897E+03    3.5038878E-03    4.7618302E+06   -1.0893110E-02    4.7407174E+06
    0.66   500.000   -1.076E+02    4.6819226E+06    4.8489966E+03    2.1039598E-03    4.6700254E+06   -1.4701812E-02    4.6496221E+06
    0.67   500.000   -1.084E+02    4.5887558E+06    4.9105997E+03   -4.1005640E-04    4.5773903E+06   -1.7053217E-02    4.5579398E+06
    0.68   500.000   -1.093E+02    4.4932630E+06    5.0398899E+03   -4.2275808E-03    4.4824633E+06   -1.8069823E-02    4.4641944E+06
    0.69   500.000   -1.102E+02    4.3940880E+06    5.2119155E+03   -9.3361365E-03    4.3837989E+06   -1.7931846E-02    4.3669514E+06
    0.70   500.000   -1.110E+02    4.2902865E+06    5.3914687E+03   -1.5518937E-02    4.2803448E+06   -1.6863088E-02    4.2651743E+06
    0.71   500.000   -1.119E+02    4.1815142E+06    5.5396252E+03   -2.2389042E-02    4.1716507E+06   -1.5118872E-02    4.1584116E+06
    0.72   500.000   -1.127E+02    4.0680296E+06    5.6203105E+03   -2.9450145E-02    4.0578972E+06   -1.2972936E-02    4.0468073E+06
    0.73   500.000   -1.135E+02    3.9505723E+06    5.6066503E+03   -3.6168384E-02    3.9397996E+06   -1.0699094E-02    3.9309938E+06
    0.74   500.000   -1.143E+02    3.8302059E+06    5.4857876E+03   -4.2039562E-02    3.8184659E+06   -8.5461637E-03    3.8119494E+06
    0.75   500.000   -1.150E+02    3.7081941E+06    5.2606494E+03   -4.6641116E-02    3.6952735E+06   -6.7100842E-03    3.6908841E+06
    0.76   500.000   -1.158E+02    3.5859392E+06    4.9479314E+03   -4.9664959E-02    3.5717889E+06   -5.3118791E-03    3.5691786E+06
    0.77   500.000   -1.165E+02    3.4649663E+06    4.5729226E+03   -5.0932863E-02    3.4497221E+06   -4.3904653E-03    3.4483631E+06
    0.78   500.000   -1.172E+02    3.3469190E+06    4.1630147E+03   -5.0398102E-02    3.3308889E+06   -3.9142277E-03    3.3301030E+06
    0.79   500.000   -1.178E+02    3.2335338E+06    3.7420946E+03   -4.8136391E-02    3.2171595E+06   -3.8073793E-03    3.2161666E+06
    0.80   500.000   -1.185E+02    3.1265802E+06    3.3271252E+03   -4.4327518E-02    3.1103849E+06   -3.9810235E-03    3.1083623E+06
    0.81   500.000   -1.191E+02    3.0277740E+06    2.9266136E+03   -3.9228635E-02    3.0123091E+06   -4.3579108E-03    3.0084557E+06
    0.82   500.000   -1.196E+02    2.9386845E+06    2.5396340E+03   -3.3141332E-02    2.9244813E+06   -4.8841221E-03    2.9180829E+06
    0.83   500.000   -1.202E+02    2.8606558E+06    2.1545473E+03   -2.6376619E-02    2.8481844E+06   -5.5272389E-03    2.8386746E+06
    0.84   500.000   -1.207E+02    2.7947600E+06    1.7481683E+03   -1.9223240E-02    2.7843942E+06   -6.2653790E-03    2.7714060E+06
    0.85   500.000   -1.213E+02    2.7417928E+06    1.2873147E+03   -1.1924392E-02    2.7337811E+06   -7.0730718E-03    2.7171814E+06
    0.86   500.000   -1.218E+02    2.7023145E+06    7.3413481E+02   -4.6660974E-03    2.6967589E+06   -7.9089991E-03    2.6766581E+06
    0.87   500.000   -1.222E+02    2.6767225E+06    5.4529797E+01    2.4223149E-03    2.6735693E+06   -8.7088980E-03    2.6503013E+06
    0.88   500.000   -1.227E+02    2.6653163E+06   -7.7302921E+02    9.2577136E-03    2.6643615E+06   -9.3855864E-03    2.6384359E+06
    0.89   500.000   -1.232E+02    2.6683049E+06   -1.7512902E+03    1.5786629E-02    2.6692143E+06   -9.8370605E-03    2.6412486E+06
    0.90   500.000   -1.236E+02    2.6857149E+06   -2.8619556E+03    2.1967352E-02    2.6880551E+06   -9.9621980E-03    2.6587002E+06
    0.91   500.000   -1.240E+02    2.7171993E+06   -4.0664726E+03    2.7754942E-02    2.7204740E+06   -9.6815391E-03    2.6903470E+06
    0.92   500.000   -1.245E+02    2.7617996E+06   -5.3079828E+03    3.3092154E-02    2.7654832E+06   -8.9585486E-03    2.7351206E+06
    0.93   500.000   -1.249E+02    2.8177456E+06   -6.5134379E+03    3.7907555E-02    2.8213099E+06   -7.8157788E-03    2.7911457E+06
    0.94   500.000   -1.254E+02    2.8823819E+06   -7.5967489E+03    4.2120356E-02    2.8853110E+06   -6.3410623E-03    2.8556802E+06
    0.95   500.000   -1.258E+02    2.9522723E+06   -8.4649543E+03    4.5650148E-02    2.9540666E+06   -4.6810185E-03    2.9252278E+06
    0.96   500.000   -1.262E+02    3.0234869E+06   -9.0287150E+03    4.8428752E-02    3.0236594E+06   -3.0219720E-03    2.9958261E+06
    0.97   500.000   -1.267E+02    3.0920171E+06   -9.2161927E+03    5.0411019E-02    3.0900891E+06   -1.5611537E-03    3.0634588E+06
    0.98   500.000   -1.271E+02    3.1542285E+06   -8.9869067E+03    5.1581711E-02    3.1497330E+06   -4.7343758E-04    3.1245014E+06
    0.99   500.000   -1.276E+02    3.2072453E+06   -8.3410502E+03    5.1956775E-02    3.1997451E+06    1.1945806E-04    3.1761008E+06
    1.00   500.000   -1.280E+02    3.2491881E+06   -7.3208124E+03    5.1579290E-02    3.2383127E+06    1.7003763E-04    3.2164103E+06
    1.01   500.000   -1.285E+02    3.2792429E+06   -6.0029900E+03    5.0512147E-02    3.2647377E+06   -2.8910209E-04    3.2446580E+06
    1.02   500.000   -1.289E+02    3.2975912E+06   -4.4850820E+03    4.8830246E-02    3.2793679E+06   -1.1560291E-03    3.2610770E+06
    1.03   500.000   -1.294E+02    3.3052634E+06   -2.8687307E+03    4.6614192E-02    3.2834361E+06   -2.2832786E-03    3.2667552E+06
    1.04   500.000   -1.299E+02    3.3039690E+06   -1.2443961E+03    4.3945935E-02    3.2788641E+06   -3.5073247E-03    3.2634594E+06
    1.05   500.000   -1.303E+02    3.2959306E+06    3.1990843E+02    4.0905734E-02    3.2680656E+06   -4.6755632E-03    3.2534614E+06
    1.06   500.000   -1.308E+02    3.2837240E+06    1.7843219E+03    3.7569791E-02    3.2537590E+06   -5.6650977E-03    3.2393721E+06
    1.07   500.000   -1.313E+02    3.2701088E+06    3.1368936E+03    3.4008558E-02    3.2387847E+06   -6.3918125E-03    3.2239755E+06
    1.08   500.000   -1.318E+02    3.2578438E+06    4.3878366E+03    3.0286353E-02    3.2259221E+06   -6.8118598E-03    3.2100541E+06
    1.09   500.000   -1.323E+02    3.2494827E+06    5.5594033E+03    2.6462848E-02    3.2177009E+06   -6.9190524E-03    3.2002014E+06
    1.10   500.000   -1.328E+02    3.2471599E+06    6.6731392E+03    2.2596268E-02    3.2162089E+06   -6.7405645E-03    3.1966231E+06
    1.11   500.000   -1.333E+02    3.2523852E+06    7.7368749E+03    1.8747069E-02    3.2229049E+06   -6.3311090E-03    3.2009409E+06
    1.12   500.000   -1.338E+02    3.2658771E+06    8.7343605E+03    1.4980241E-02    3.2384595E+06   -5.7642335E-03    3.2140193E+06
    1.13   500.000   -1.343E+02    3.2874669E+06    9.6208221E+03    1.1364731E-02    3.2626557E+06   -5.1197237E-03    3.2358511E+06
    1.14   500.000   -1.348E+02    3.3161073E+06    1.0327459E+04    7.9699033E-03    3.2943828E+06   -4.4681732E-03    3.2655311E+06
    1.15   500.000   -1.354E+02    3.3499934E+06    1.0776209E+04    4.8606476E-03    3.3317437E+06   -3.8563640E-03    3.3013386E+06
    1.16   500.000   -1.359E+02    3.3867816E+06    1.0902515E+04    2.0935185E-03    3.3722656E+06   -3.2985331E-03    3.3409197E+06
    1.17   500.000   -1.365E+02    3.4238592E+06    1.0679304E+04   -2.8443656E-04    3.4131723E+06   -2.7776228E-03    3.3815398E+06
    1.18   500.000   -1.371E+02    3.4586156E+06    1.0132509E+04   -2.2345129E-03    3.4516682E+06   -2.2571305E-03    3.4203630E+06
    1.19   500.000   -1.377E+02    3.4886717E+06    9.3401760E+03   -3.7250967E-03    3.4851852E+06   -1.6996089E-03    3.4547186E+06
    1.20   500.000   -1.384E+02    3.5120524E+06    8.4137443E+03   -4.7330178E-03    3.5115747E+06   -1.0846103E-03    3.4823311E+06
    1.21   500.000   -1.390E+02    3.5273080E+06    7.4684569E+03   -5.2486796E-03    3.5292448E+06   -4.1887958E-04    3.5014995E+06
    1.22   500.000   -1.397E+02    3.5335859E+06    6.5950269E+03   -5.2835187E-03    3.5372467E+06    2.6486372E-04    3.5112099E+06
    1.23   500.000   -1.404E+02    3.5306426E+06    5.8434693E+03   -4.8762482E-03    3.5352987E+06    9.1883254E-04    3.5111603E+06
    1.24   500.000   -1.411E+02    3.5187774E+06    5.2233760E+03   -4.0940115E-03    3.5237295E+06    1.4945529E-03    3.5016774E+06
    1.25   500.000   -1.419E+02    3.4986850E+06    4.7170667E+03   -3.0261299E-03    3.5033330E+06    1.9532072E-03    3.4835372E+06
    1.26   500.000   -1.427E+02    3.4712615E+06    4.2974392E+03   -1.7707768E-03    3.4751659E+06    2.2670555E-03    3.4577342E+06
    1.27   500.000   -1.435E+02    3.4374246E+06    3.9426967E+03   -4.1765387E-04    3.4403445E+06    2.4122796E-03    3.4252730E+06
    1.28   500.000   -1.443E+02    3.3980025E+06    3.6438535E+03    9.6825740E-04    3.3999023E+06    2.3587239E-03    3.3870420E+06
    1.29   500.000   -1.452E+02    3.3537108E+06    3.4049615E+03    2.3562735E-03    3.3547317E+06    2.0643383E-03    3.3437862E+06
    1.30   500.000   -1.461E+02    3.3051916E+06    3.2383143E+03    3.7488710E-03    3.3055964E+06    1.4803879E-03    3.2961526E+06
    1.31   500.000   -1.470E+02    3.2530663E+06    3.1574210E+03    5.1694056E-03    3.2531720E+06    5.6853412E-04    3.2447562E+06
    1.32   500.000   -1.480E+02    3.1979593E+06    3.1702878E+03    6.6427806E-03    3.1980766E+06   -6.7489379E-04    3.1902200E+06
    1.33   500.000   -1.490E+02    3.1404799E+06    3.2751048E+03    8.1764010E-03    3.1408701E+06   -2.1961458E-03    3.1331681E+06
    1.34   500.000   -1.501E+02    3.0811746E+06    3.4596972E+03    9.7487399E-03    3.0820256E+06   -3.8722952E-03    3.0741799E+06
    1.35   500.000   -1.512E+02    3.0204795E+06    3.7048264E+03    1.1309256E-02    3.0218964E+06   -5.5174025E-03    3.0137352E+06
    1.36   500.000   -1.524E+02    2.9587087E+06    3.9899078E+03    1.2788152E-02    2.9607089E+06   -6.9085546E-03    2.9521887E+06
    1.37   500.000   -1.536E+02    2.8961023E+06    4.2986553E+03    1.4110578E-02    2.8986120E+06   -7.8276550E-03    2.8898048E+06
    1.38   500.000   -1.549E+02    2.8329399E+06    4.6221515E+03    1.5209514E-02    2.8357929E+06   -8.1091866E-03    2.8268645E+06
    1.39   500.000   -1.562E+02    2.7696923E+06    4.9579170E+03    1.6034318E-02    2.7726348E+06   -7.6807473E-03    2.7638165E+06
    1.40   500.000   -1.576E+02    2.7071555E+06    5.3052397E+03    1.6555583E-02    2.7098628E+06   -6.5837422E-03    2.7014184E+06
    1.41   500.000   -1.589E+02    2.6465069E+06    5.6586147E+03    1.6768748E-02    2.6486118E+06   -4.9669128E-03    2.6408005E+06
    1.42   500.000   -1.603E+02    2.5892464E+06    6.0020300E+03    1.6698053E-02    2.5903772E+06   -3.0540567E-03    2.5834141E+06
    1.43   500.000   -1.617E+02    2.5370292E+06    6.3066377E+03    1.6399954E-02    2.5368497E+06   -1.0960194E-03    2.5308713E+06
    1.44   500.000   -1.632E+02    2.4914420E+06    6.5330815E+03    1.5963130E-02    2.4896863E+06    6.7800476E-04    2.4847247E+06
    1.45   500.000   -1.646E+02    2.4537866E+06    6.6379194E+03    1.5502185E-02    2.4502824E+06    2.0958646E-03    2.4462568E+06
    1.46   500.000   -1.660E+02    2.4249285E+06    6.5820611E+03    1.5144119E-02    2.4196056E+06    3.0568801E-03    2.4163347E+06
    1.47   500.000   -1.673E+02    2.4052314E+06    6.3386857E+03    1.5009543E-02    2.3981186E+06    3.5260442E-03    2.3953522E+06
    1.48   500.000   -1.687E+02    2.3945696E+06    5.8987572E+03    1.5193031E-02    2.3857852E+06    3.5152118E-03    2.3832478E+06
    1.49   500.000   -1.700E+02    2.3923855E+06    5.2733269E+03    1.5747686E-02    2.3821277E+06    3.0605363E-03    2.3795615E+06
    1.50   500.000   -1.713E+02    2.3977620E+06    4.4925674E+03    1.6677704E-02    2.3863034E+06    2.2031668E-03    2.3834969E+06
    1.51   500.000   -1.725E+02    2.4094981E+06    3.6017941E+03    1.7940124E-02    2.3971809E+06    9.7608014E-04    2.3939761E+06
    1.52   500.000   -1.737E+02    2.4261977E+06    2.6550047E+03    1.9454327E-02    2.4134269E+06   -6.0321533E-04    2.4097030E+06
    1.53   500.000   -1.748E+02    2.4463968E+06    1.7070641E+03    2.1116387E-02    2.4336209E+06   -2.5350019E-03    2.4292653E+06
    1.54   500.000   -1.759E+02    2.4687333E+06    8.0636611E+02    2.2815412E-02    2.4564112E+06   -4.8345263E-03    2.4512901E+06
    1.55   500.000   -1.769E+02    2.4921379E+06   -9.9372887E+00    2.4449416E-02    2.4806902E+06   -7.5231640E-03    2.4746358E+06
    1.56   500.000   -1.779E+02    2.5159862E+06   -7.1661333E+02    2.5938194E-02    2.5057394E+06   -1.0613841E-02    2.4985624E+06
    1.57   500.000   -1.789E+02    2.5401485E+06   -1.2967245E+03    2.7230190E-02    2.5312863E+06   -1.4093394E-02    2.5228120E+06
    1.58   500.000   -1.798E+02    2.5649026E+06   -1.7351249E+03    2.8300948E-02    2.5574373E+06   -1.7906432E-02    2.5475538E+06
    1.59   500.000   -1.807E+02    2.5907228E+06   -2.0118465E+03    2.9143492E-02    2.5844982E+06   -2.1945214E-02    2.5731993E+06
    1.60   500.000   -1.815E+02    2.6180122E+06   -2.0986274E+03    2.9754865E-02    2.6127415E+06   -2.6048446E-02    2.6001462E+06
    1.61   500.000   -1.823E+02    2.6468692E+06   -1.9610985E+03    3.0125346E-02    2.6421983E+06   -3.0009888E-02    2.6285423E+06
    1.62   500.000   -1.832E+02    2.6769662E+06   -1.5672813E+03    3.0235787E-02    2.6725486E+06   -3.3596400E-02    2.6581499E+06
    1.63   500.000   -1.839E+02    2.7075782E+06   -9.0054059E+02    3.0064187E-02    2.7031425E+06   -3.6574035E-02    2.6883527E+06
    1.64   500.000   -1.847E+02    2.7377487E+06    2.7144996E+01    2.9597819E-02    2.7331423E+06   -3.8739239E-02    2.7182962E+06
    1.65   500.000   -1.855E+02    2.7665368E+06    1.1666874E+03    2.8844556E-02    2.7617381E+06   -3.9949782E-02    2.7471131E+06
    1.66   500.000   -1.862E+02    2.7932722E+06    2.4320693E+03    2.7837758E-02    2.7883723E+06   -4.0147943E-02    2.7741616E+06
    1.67   500.000   -1.870E+02    2.8177456E+06    3.7100038E+03    2.6632445E-02    2.8129070E+06   -3.9368726E-02    2.7992107E+06
    1.68   500.000   -1.877E+02    2.8402879E+06    4.8764127E+03    2.5294427E-02    2.8356923E+06   -3.7729630E-02    2.8225260E+06
    1.69   500.000   -1.884E+02    2.8617238E+06    5.8150736E+03    2.3886732E-02    2.8575200E+06   -3.5404729E-02    2.8448409E+06
    1.70   500.000   -1.891E+02    2.8832236E+06    6.4340145E+03    2.2458148E-02    2.8794840E+06   -3.2591540E-02    2.8672308E+06
    1.71   500.000   -1.899E+02    2.9060967E+06    6.6768353E+03    2.1037106E-02    2.9027872E+06   -2.9481244E-02    2.8909280E+06
    1.72   500.000   -1.906E+02    2.9315797E+06    6.5276765E+03    1.9631592E-02    2.9285477E+06   -2.6240337E-02    2.9171259E+06
    1.73   500.000   -1.913E+02    2.9606617E+06    6.0094390E+03    1.8233475E-02    2.9576418E+06   -2.3006072E-02    2.9468094E+06
    1.74   500.000   -1.920E+02    2.9939678E+06    5.1755859E+03    1.6824650E-02    2.9906063E+06   -1.9892281E-02    2.9806345E+06
    1.75   500.000   -1.926E+02    3.0317008E+06    4.0972215E+03    1.5382665E-02    3.0275949E+06   -1.6998880E-02    3.0188568E+06
    1.76   500.000   -1.933E+02    3.0736240E+06    2.8489914E+03    1.3884618E-02    3.0683709E+06   -1.4418369E-02    3.0612977E+06
    1.77   500.000   -1.940E+02    3.1190726E+06    1.4984434E+03    1.2309452E-02    3.1123220E+06   -1.2235388E-02    3.1073370E+06
    1.78   500.000   -1.947E+02    3.1669945E+06    1.0239876E+02    1.0639916E-02    3.1584950E+06   -1.0519006E-02    3.1559387E+06
    1.79   500.000   -1.954E+02    3.2160393E+06   -1.2895446E+03    8.8661439E-03    3.2056688E+06   -9.3107469E-03    3.2057275E+06
    1.80   500.000   -1.961E+02    3.2647128E+06   -2.6283477E+03    6.9922955E-03    3.2524843E+06   -8.6130738E-03    3.2551364E+06
    1.81   500.000   -1.968E+02    3.3115939E+06   -3.8618421E+03    5.0461430E-03    3.2976321E+06   -8.3829888E-03    3.3026214E+06
    1.82   500.000   -1.975E+02    3.3555786E+06   -4.9387342E+03    3.0891120E-03    3.3400689E+06   -8.5335291E-03    3.3469137E+06
    1.83   500.000   -1.982E+02    3.3960939E+06   -5.8204897E+03    1.2225670E-03    3.3792144E+06   -8.9433695E-03    3.3872551E+06
    1.84   500.000   -1.990E+02    3.4332237E+06   -6.4961170E+03   -4.1410675E-04    3.4150780E+06   -9.4725991E-03    3.4235602E+06
    1.85   500.000   -1.997E+02    3.4677099E+06   -6.9920836E+03   -1.6565141E-03    3.4482810E+06   -9.9818413E-03    3.4564626E+06
    1.86   500.000   -2.004E+02    3.5008253E+06   -7.3710622E+03   -2.3394993E-03    3.4799656E+06   -1.0352017E-02    3.4872280E+06
    1.87   500.000   -2.011E+02    3.5341472E+06   -7.7182789E+03   -2.3297167E-03    3.5116082E+06   -1.0502436E-02    3.5175486E+06
    1.88   500.000   -2.019E+02    3.5692891E+06   -8.1200231E+03   -1.5608300E-03    3.5447804E+06   -1.0404960E-02    3.5492656E+06
    1.89   500.000   -2.026E+02    3.6076555E+06   -8.6421601E+03   -6.3535241E-05    3.5809169E+06   -1.0091781E-02    3.5840901E+06
    1.90   500.000   -2.033E+02    3.6502744E+06   -9.3158153E+03    2.0183282E-03    3.6211448E+06   -9.6544109E-03    3.6233880E+06
    1.91   500.000   -2.041E+02    3.6977281E+06   -1.0133804E+04    4.4330846E-03    3.6662019E+06   -9.2323608E-03    3.6680661E+06
    1.92   500.000   -2.048E+02    3.7501650E+06   -1.1057076E+04    6.8512236E-03    3.7164324E+06   -8.9918916E-03    3.7185516E+06
    1.93   500.000   -2.056E+02    3.8073480E+06   -1.2027343E+04    8.9165713E-03    3.7718186E+06   -9.0979454E-03    3.7748214E+06
    1.94   500.000   -2.063E+02    3.8687002E+06   -1.2981036E+04    1.0307991E-02    3.8320075E+06   -9.6849118E-03    3.8364374E+06
    1.95   500.000   -2.071E+02    3.9333376E+06   -1.3860651E+04    1.0796629E-02    3.8963188E+06   -1.0832897E-02    3.9025675E+06
    1.96   500.000   -2.079E+02    4.0001140E+06   -1.4621443E+04    1.0284251E-02    3.9637599E+06   -1.2554703E-02    3.9720174E+06
    1.97   500.000   -2.087E+02    4.0677209E+06   -1.5233235E+04    8.8134194E-03    4.0330943E+06   -1.4795246E-02    4.0433167E+06
    1.98   500.000   -2.094E+02    4.1348731E+06   -1.5678265E+04    6.5481290E-03    4.1030031E+06   -1.7441530E-02    4.1149031E+06
    1.99   500.000   -2.102E+02    4.2005750E+06   -1.5946624E+04    3.7311816E-03    4.1723419E+06   -2.0339354E-02    4.1854080E+06
    2.00   500.000   -2.110E+02    4.2644174E+06   -1.6031152E+04    6.2978280E-04    4.2404528E+06   -2.3313257E-02    4.2540000E+06
    2.01   500.000   -2.118E+02    4.3268291E+06   -1.5923761E+04   -2.5176173E-03    4.3074537E+06   -2.6187454E-02    4.3207046E+06
    2.02   500.000   -2.126E+02    4.3892092E+06   -1.5614734E+04   -5.5421459E-03    4.3744263E+06   -2.8806346E-02    4.3866084E+06
    2.03   500.000   -2.134E+02    4.4538990E+06   -1.5095856E+04   -8.3660062E-03    4.4434464E+06   -3.1052642E-02    4.4538834E+06
    2.04   500.000   -2.142E+02    4.5239985E+06   -1.4367211E+04   -1.1002432E-02    4.5174476E+06   -3.2860107E-02    4.5256207E+06
    2.05   500.000   -2.150E+02    4.6030713E+06   -1.3446401E+04   -1.3536248E-02    4.5999475E+06   -3.4217480E-02    4.6055124E+06
    2.06   500.000   -2.158E+02    4.6947891E+06   -1.2377830E+04   -1.6090615E-02    4.6946866E+06   -3.5161338E-02    4.6974457E+06
    2.07   500.000   -2.166E+02    4.8025555E+06   -1.1238891E+04   -1.8787680E-02    4.8052219E+06   -3.5758467E-02    4.8050711E+06
    2.08   500.000   -2.174E+02    4.9291244E+06   -1.0139561E+04   -2.1711309E-02    4.9345050E+06   -3.6081783E-02    4.9313790E+06
    2.09   500.000   -2.183E+02    5.0762206E+06   -9.2126071E+03   -2.4878938E-02    5.0844639E+06   -3.6186332E-02    5.0783056E+06
    2.10   500.000   -2.191E+02    5.2441902E+06   -8.5936462E+03   -2.8227389E-02    5.2556260E+06   -3.6092228E-02    5.2463904E+06
    2.11   500.000   -2.199E+02    5.4317409E+06   -8.3936500E+03   -3.1615036E-02    5.4468433E+06   -3.5779367E-02    5.4345306E+06
    2.12   500.000   -2.207E+02    5.6358621E+06   -8.6702293E+03   -3.4840146E-02    5.6552029E+06   -3.5195068E-02    5.6399068E+06
    2.13   500.000   -2.215E+02    5.8520031E+06   -9.4062522E+03   -3.7672702E-02    5.8761954E+06   -3.4271834E-02    5.8581455E+06
    2.14   500.000   -2.223E+02    6.0745248E+06   -1.0503434E+04   -3.9894548E-02    6.1041531E+06   -3.2949264E-02    6.0837379E+06
    2.15   500.000   -2.231E+02    6.2973460E+06   -1.1794187E+04   -4.1340718E-02    6.3328825E+06   -3.1192950E-02    6.3106464E+06
    2.16   500.000   -2.239E+02    6.5146230E+06   -1.3068983E+04   -4.1933788E-02    6.5563411E+06   -2.9004482E-02    6.5329534E+06
    2.17   500.000   -2.247E+02    6.7212901E+06   -1.4111515E+04   -4.1703621E-02    6.7691932E+06   -2.6420036E-02    6.7453915E+06
    2.18   500.000   -2.255E+02    6.9133612E+06   -1.4732333E+04   -4.0787264E-02    6.9671447E+06   -2.3498902E-02    6.9436628E+06
    2.19   500.000   -2.263E+02    7.0880079E+06   -1.4793820E+04   -3.9408010E-02    7.1470683E+06   -2.0306087E-02    7.1245597E+06
    2.20   500.000   -2.271E+02    7.2435297E+06   -1.4223802E+04   -3.7838095E-02    7.3070201E+06   -1.6894269E-02    7.2859951E+06
    2.21   500.000   -2.278E+02    7.3793436E+06   -1.3019222E+04   -3.6354061E-02    7.4462661E+06   -1.3290472E-02    7.4270562E+06
    2.22   500.000   -2.286E+02    7.4960663E+06   -1.1243066E+04   -3.5195684E-02    7.5653796E+06   -9.4921278E-03    7.5481364E+06
    2.23   500.000   -2.294E+02    7.5956577E+06   -9.0167756E+03   -3.4537127E-02    7.6663763E+06   -5.4752867E-03    7.6511010E+06
    2.24   500.000   -2.301E+02    7.6815176E+06   -6.5082937E+03   -3.4474020E-02    7.7527762E+06   -1.2138834E-03    7.7393712E+06
    2.25   500.000   -2.309E+02    7.7584063E+06   -3.9146943E+03   -3.5024856E-02    7.8294721E+06    3.2957707E-03    7.8178004E+06
    2.26   500.000   -2.316E+02    7.8321092E+06   -1.4394730E+03   -3.6142144E-02    7.9023328E+06    8.0143705E-03    7.8922773E+06
    2.27   500.000   -2.323E+02    7.9088534E+06    7.3272609E+02   -3.7728638E-02    7.9775668E+06    1.2851313E-02    7.9690818E+06
    2.28   500.000   -2.330E+02    7.9945733E+06    2.4587243E+03   -3.9655225E-02    8.0609624E+06    1.7672241E-02    8.0541134E+06
    2.29   500.000   -2.337E+02    8.0941683E+06    3.6513527E+03   -4.1778194E-02    8.1571659E+06    2.2319077E-02    8.1521516E+06
    2.30   500.000   -2.344E+02    8.2108976E+06    4.2830830E+03   -4.3953976E-02    8.2691434E+06    2.6633884E-02    8.2662956E+06
    2.31   500.000   -2.351E+02    8.3460061E+06    4.3798754E+03   -4.6049778E-02    8.3979078E+06    3.0477161E-02    8.3976606E+06
    2.32   500.000   -2.357E+02    8.4986176E+06    4.0093927E+03   -4.7949486E-02    8.5425115E+06    3.3735212E-02    8.5453388E+06
    2.33   500.000   -2.364E+02    8.6658774E+06    3.2681062E+03   -4.9555569E-02    8.7002531E+06    3.6317733E-02    8.7065774E+06
    2.34   500.000   -2.371E+02    8.8432946E+06    2.2696932E+03   -5.0788875E-02    8.8670255E+06    3.8151798E-02    8.8771139E+06
    2.35   500.000   -2.378E+02    9.0252206E+06    1.1344192E+03   -5.1588615E-02    9.0377448E+06    3.9179422E-02    9.0516159E+06
    2.36   500.000   -2.385E+02    9.2053965E+06   -2.1838851E+01   -5.1914233E-02    9.2068093E+06    3.9362635E-02    9.2241774E+06
    2.37   500.000   -2.392E+02    9.3774968E+06   -1.0987742E+03   -5.1749746E-02    9.3685418E+06    3.8694587E-02    9.3888154E+06
    2.38   500.000   -2.399E+02    9.5355993E+06   -2.0201596E+03   -5.1109578E-02    9.5175660E+06    3.7210805E-02    9.5399036E+06
    2.39   500.000   -2.406E+02    9.6745196E+06   -2.7354071E+03   -5.0043668E-02    9.6490672E+06    3.4993767E-02    9.6724781E+06
    2.40   500.000   -2.413E+02    9.7899789E+06   -3.2116446E+03   -4.8638994E-02    9.7589143E+06    3.2167139E-02    9.7823810E+06
    2.41   500.000   -2.420E+02    9.8786212E+06   -3.4182645E+03   -4.7014994E-02    9.8436639E+06    2.8881599E-02    9.8662614E+06
    2.42   500.000   -2.427E+02    9.9379587E+06   -3.3106770E+03   -4.5311621E-02    9.9005261E+06    2.5298660E-02    9.9215186E+06
    2.43   500.000   -2.435E+02    9.9663626E+06   -2.8221418E+03   -4.3670566E-02    9.9274109E+06    2.1579362E-02    9.9463150E+06
    2.44   500.000   -2.442E+02    9.9632137E+06   -1.8703771E+03   -4.2212099E-02    9.9231584E+06    1.7880839E-02    9.9397708E+06
    2.45   500.000   -2.449E+02    9.9292451E+06   -3.7971556E+02   -4.1011502E-02    9.8879764E+06    1.4358366E-02    9.9023672E+06
    2.46   500.000   -2.456E+02    9.8669893E+06    1.6876161E+03   -4.0079651E-02    9.8239769E+06    1.1167303E-02    9.8364496E+06
    2.47   500.000   -2.463E+02    9.7811309E+06    4.3026383E+03   -3.9351712E-02    9.7355970E+06    8.4601070E-03    9.7466165E+06
    2.48   500.000   -2.470E+02    9.6785288E+06    7.3552733E+03   -3.8686518E-02    9.6296528E+06    6.3771249E-03    9.6397491E+06
    2.49   500.000   -2.477E+02    9.5677478E+06    1.0662147E+04   -3.7877711E-02    9.5148657E+06    5.0333040E-03    9.5245296E+06
    2.50   500.000   -2.484E+02    9.4581173E+06    1.3996558E+04   -3.6676533E-02    9.4008817E+06    4.5042203E-03    9.4104780E+06
    2.51   500.000   -2.491E+02    9.3585259E+06    1.7132821E+04   -3.4824676E-02    9.2970055E+06    4.8142773E-03    9.3067298E+06
    2.52   500.000   -2.498E+02    9.2762878E+06    1.9892072E+04   -3.2093497E-02    9.2109976E+06    5.9289771E-03    9.2208875E+06
    2.53   500.000   -2.505E+02    9.2163941E+06    2.2175963E+04   -2.8323518E-02    9.1482559E+06    7.7528262E-03    9.1582480E+06
    2.54   500.000   -2.511E+02    9.1813076E+06    2.3979258E+04   -2.3457154E-02    9.1115488E+06    1.0134188E-02    9.1215529E+06
    2.55   500.000   -2.518E+02    9.1712580E+06    2.5380334E+04   -1.7558877E-02    9.1012628E+06    1.2877174E-02    9.1112159E+06
    2.56   500.000   -2.525E+02    9.1848362E+06    2.6516381E+04   -1.0819909E-02    9.1159725E+06    1.5758407E-02    9.1258504E+06
    2.57   500.000   -2.531E+02    9.2196505E+06    2.7553557E+04   -3.5474288E-03    9.1531040E+06    1.8544481E-02    9.1628853E+06
    2.58   500.000   -2.538E+02    9.2728726E+06    2.8660020E+04    3.8603097E-03    9.2095218E+06    2.1005933E-02    9.2191255E+06
    2.59   500.000   -2.544E+02    9.3416126E+06    2.9984355E+04    1.0950907E-02    9.2819693E+06    2.2925943E-02    9.2911993E+06
    2.60   500.000   -2.551E+02    9.4231459E+06    3.1637486E+04    1.7263892E-02    9.3673694E+06    2.4105529E-02    9.3758951E+06
    2.61   500.000   -2.557E+02    9.5150378E+06    3.3675764E+04    2.2380921E-02    9.4630109E+06    2.4369407E-02    9.4703966E+06
    2.62   500.000   -2.563E+02    9.6151796E+06    3.6085822E+04    2.5972671E-02    9.5666232E+06    2.3576351E-02    9.5723937E+06
    2.63   500.000   -2.569E+02    9.7217199E+06    3.8775256E+04    2.7833918E-02    9.6763197E+06    2.1634984E-02    9.6800323E+06
    2.64   500.000   -2.576E+02    9.8328758E+06    4.1574446E+04    2.7900177E-02    9.7903948E+06    1.8522312E-02    9.7916890E+06
    2.65   500.000   -2.582E+02    9.9466496E+06    4.4252967E+04    2.6243769E-02    9.9070075E+06    1.4299986E-02    9.9056147E+06
    2.66   500.000   -2.588E+02    1.0060531E+07    4.6550158E+04    2.3052407E-02    1.0023833E+07    9.1229276E-03    1.0019549E+07
    2.67   500.000   -2.593E+02    1.0171282E+07    4.8214943E+04    1.8596928E-02    1.0137789E+07    3.2361812E-03    1.0130430E+07
    2.68   500.000   -2.599E+02    1.0274881E+07    4.9046522E+04    1.3195430E-02    1.0244938E+07   -3.0421652E-03    1.0234290E+07
    2.69   500.000   -2.605E+02    1.0366643E+07    4.8926325E+04    7.1794282E-03    1.0340576E+07   -9.3513043E-03    1.0326366E+07
    2.70   500.000   -2.610E+02    1.0441480E+07    4.7833582E+04    8.6569334E-04    1.0419515E+07   -1.5326976E-02    1.0401386E+07
    2.71   500.000   -2.616E+02    1.0494233E+07    4.5841692E+04   -5.4639166E-03    1.0476447E+07   -2.0642034E-02    1.0453960E+07
    2.72   500.000   -2.621E+02    1.0520011E+07    4.3098074E+04   -1.1572965E-02    1.0506336E+07   -2.5039688E-02    1.0478973E+07
    2.73   500.000   -2.626E+02    1.0514513E+07    3.9794430E+04   -1.7270809E-02    1.0504770E+07   -2.8353397E-02    1.0471947E+07
    2.74   500.000   -2.631E+02    1.0474328E+07    3.6136276E+04   -2.2404419E-02    1.0468276E+07   -3.0512490E-02    1.0429344E+07
    2.75   500.000   -2.636E+02    1.0397275E+07    3.2320147E+04   -2.6845604E-02    1.0394631E+07   -3.1537182E-02    1.0348870E+07
    2.76   500.000   -2.641E+02    1.0282782E+07    2.8523731E+04   -3.0479092E-02    1.0283210E+07   -3.1528165E-02    1.0229810E+07
    2.77   500.000   -2.646E+02    1.0132276E+07    2.4908429E+04   -3.3196574E-02    1.0135350E+07   -3.0654026E-02    1.0073400E+07
    2.78   500.000   -2.650E+02    9.9494624E+06    2.1627686E+04   -3.4899651E-02    9.9546270E+06   -2.9136339E-02    9.8831141E+06
    2.79   500.000   -2.655E+02    9.7403444E+06    1.8831624E+04   -3.5511337E-02    9.7468919E+06   -2.7230081E-02    9.6647358E+06
    2.80   500.000   -2.659E+02    9.5128652E+06    1.6661247E+04   -3.4992836E-02    9.5199472E+06   -2.5197677E-02    9.4260631E+06
    2.81   500.000   -2.663E+02    9.2761799E+06    1.5232388E+04   -3.3361030E-02    9.2828503E+06   -2.3278333E-02    9.1762310E+06
    2.82   500.000   -2.668E+02    9.0396840E+06    1.4616430E+04   -3.0702381E-02    9.0449643E+06   -2.1658281E-02    8.9247581E+06
    2.83   500.000   -2.672E+02    8.8120067E+06    1.4827164E+04   -2.7179852E-02    8.8149592E+06   -2.0449578E-02    8.6805199E+06
    2.84   500.000   -2.676E+02    8.6001714E+06    1.5819564E+04   -2.3030130E-02    8.5999685E+06   -1.9683494E-02    8.4508610E+06
    2.85   500.000   -2.680E+02    8.4090535E+06    1.7499129E+04   -1.8549132E-02    8.4050271E+06   -1.9319900E-02    8.2409948E+06
    2.86   500.000   -2.683E+02    8.2411707E+06    1.9734627E+04   -1.4065630E-02    8.2328328E+06   -1.9268606E-02    8.0537554E+06
    2.87   500.000   -2.687E+02    8.0967667E+06    2.2365985E+04   -9.9058698E-03    8.0837978E+06   -1.9415137E-02    7.8896828E+06
    2.88   500.000   -2.691E+02    7.9741058E+06    2.5203048E+04   -6.3551361E-03    7.9563164E+06   -1.9643408E-02    7.7473611E+06
    2.89   500.000   -2.695E+02    7.8698864E+06    2.8017742E+04   -3.6236554E-03    7.8471687E+06   -1.9850756E-02    7.6238980E+06
    2.90   500.000   -2.699E+02    7.7797005E+06    3.0538588E+04   -1.8233573E-03    7.7519917E+06   -1.9954803E-02    7.5154336E+06
    2.91   500.000   -2.702E+02    7.6985065E+06    3.2459724E+04   -9.5941940E-04    7.6657830E+06   -1.9894591E-02    7.4176108E+06
    2.92   500.000   -2.706E+02    7.6211221E+06    3.3474122E+04   -9.3753404E-04    7.5834332E+06   -1.9629160E-02    7.3259971E+06
    2.93   500.000   -2.710E+02    7.5427562E+06    3.3332093E+04   -1.5854589E-03    7.5002919E+06   -1.9135684E-02    7.2364912E+06
    2.94   500.000   -2.714E+02    7.4595681E+06    3.1913083E+04   -2.6857076E-03    7.4127369E+06   -1.8407450E-02    7.1457408E+06
    2.95   500.000   -2.717E+02    7.3691829E+06    2.9286713E+04   -4.0146045E-03    7.3186710E+06   -1.7450825E-02    7.0515549E+06
    2.96   500.000   -2.721E+02    7.2710607E+06    2.5735320E+04   -5.3810056E-03    7.2178444E+06   -1.6280416E-02    6.9532480E+06
    2.97   500.000   -2.725E+02    7.1666316E+06    2.1720562E+04   -6.6564575E-03    7.1119276E+06   -1.4912782E-02    6.8518400E+06
    2.98   500.000   -2.729E+02    7.0591780E+06    1.7798467E+04   -7.7890205E-03    7.0043345E+06   -1.3360375E-02    6.7500643E+06
    2.99   500.000   -2.732E+02    6.9535097E+06    1.4509104E+04   -8.7966528E-03    6.8998559E+06   -1.1627885E-02    6.6521779E+06
    3.00   500.000   -2.736E+02    6.8555014E+06    1.2275522E+04   -9.7423550E-03    6.8041867E+06   -9.7125394E-03    6.5635903E+06
    3.01   500.000   -2.740E+02    6.7715283E+06    1.1337856E+04   -1.0699584E-02    6.7233837E+06   -7.6085129E-03    6.4903220E+06
    3.02   500.000   -2.744E+02    6.7077927E+06    1.1730987E+04   -1.1719600E-02    6.6632418E+06   -5.3142926E-03    6.4382956E+06
    3.03   500.000   -2.748E+02    6.6695311E+06    1.3300099E+04   -1.2810881E-02    6.6285664E+06   -2.8410725E-03    6.4124847E+06
    3.04   500.000   -2.751E+02    6.6601524E+06    1.5743195E+04   -1.3935518E-02    6.6223811E+06   -2.2003747E-04    6.4160154E+06
    3.05   500.000   -2.755E+02    6.6804447E+06    1.8669774E+04   -1.5021135E-02    6.6451954E+06    2.4935679E-03    6.4493792E+06
    3.06   500.000   -2.759E+02    6.7280457E+06    2.1665373E+04   -1.5981930E-02    6.6945168E+06    5.2215610E-03    6.5099465E+06
    3.07   500.000   -2.762E+02    6.7973609E+06    2.4350974E+04   -1.6740395E-02    6.7647833E+06    7.8705219E-03    6.5919377E+06
    3.08   500.000   -2.766E+02    6.8800522E+06    2.6426560E+04   -1.7242310E-02    6.8478288E+06    1.0345831E-02    6.6869343E+06
    3.09   500.000   -2.770E+02    6.9661024E+06    2.7691526E+04   -1.7461113E-02    6.9338894E+06    1.2569134E-02    6.7849232E+06
    3.10   500.000   -2.773E+02    7.0453308E+06    2.8041261E+04   -1.7392248E-02    7.0130365E+06    1.4493847E-02    6.8757493E+06
    3.11   500.000   -2.777E+02    7.1090930E+06    2.7446782E+04   -1.7041881E-02    7.0767927E+06    1.6112772E-02    6.9507424E+06
    3.12   500.000   -2.781E+02    7.1518123E+06    2.5929686E+04   -1.6416056E-02    7.1196065E+06    1.7454323E-02    7.0041963E+06
    3.13   500.000   -2.784E+02    7.1719985E+06    2.3545438E+04   -1.5515328E-02    7.1398613E+06    1.8568260E-02    7.0343780E+06
    3.14   500.000   -2.788E+02    7.1725384E+06    2.0383163E+04   -1.4336814E-02    7.1402060E+06    1.9505962E-02    7.0438535E+06
    3.15   500.000   -2.792E+02    7.1602416E+06    1.6581052E+04   -1.2881888E-02    7.1271748E+06    2.0302026E-02    7.0390958E+06
    3.16   500.000   -2.795E+02    7.1448062E+06    1.2346384E+04   -1.1165333E-02    7.1102360E+06    2.0962704E-02    7.0295195E+06
    3.17   500.000   -2.799E+02    7.1374753E+06    7.9632009E+03   -9.2217301E-03    7.1005159E+06    2.1463580E-02    7.0261953E+06
    3.18   500.000   -2.802E+02    7.1496592E+06    3.7733555E+03   -7.1070443E-03    7.1094545E+06    2.1755754E-02    7.0405135E+06
    3.19   500.000   -2.806E+02    7.1917316E+06    1.2863671E+02   -4.8962821E-03    7.1475999E+06    2.1777620E-02    7.0830041E+06
    3.20   500.000   -2.809E+02    7.2721178E+06   -2.6729565E+03   -2.6797340E-03    7.2236612E+06    2.1468469E-02    7.1624303E+06
    3.21   500.000   -2.813E+02    7.3967089E+06   -4.4443603E+03   -5.5964877E-04    7.3438664E+06    2.0780142E-02    7.2851849E+06
    3.22   500.000   -2.817E+02    7.5685800E+06   -5.1402264E+03    1.3534074E-03    7.5116177E+06    1.9683767E-02    7.4549605E+06
    3.23   500.000   -2.820E+02    7.7879552E+06   -4.8539722E+03    2.9477645E-03    7.7274028E+06    1.8170446E-02    7.6726340E+06
    3.24   500.000   -2.824E+02    8.0523449E+06   -3.7876301E+03    4.1249528E-03    7.9889006E+06    1.6247225E-02    7.9362998E+06
    3.25   500.000   -2.828E+02    8.3567698E+06   -2.2086709E+03    4.8215999E-03    8.2912031E+06    1.3931558E-02    8.2413908E+06
    3.26   500.000   -2.832E+02    8.6939893E+06   -4.0727623E+02    5.0342935E-03    8.6270718E+06    1.1247639E-02    8.5808378E+06
    3.27   500.000   -2.836E+02    9.0546701E+06    1.3382147E+03    4.8384121E-03    8.9871516E+06    8.2261679E-03    8.9452277E+06
    3.28   500.000   -2.841E+02    9.4274652E+06    2.7857701E+03    4.3912848E-03    9.3600964E+06    4.9065848E-03    9.3229411E+06
    3.29   500.000   -2.845E+02    9.7990395E+06    3.7451431E+03    3.9142625E-03    9.7326222E+06    1.3391504E-03    9.7002866E+06
    3.30   500.000   -2.850E+02    1.0154147E+07    4.0860595E+03    3.6557126E-03    1.0089584E+07   -2.4156635E-03    1.0061706E+07
    3.31   500.000   -2.854E+02    1.0475933E+07    3.7409778E+03    3.8440155E-03    1.0414246E+07   -6.2915027E-03    1.0390184E+07
    3.32   500.000   -2.859E+02    1.0746630E+07    2.7050292E+03    4.6430500E-03    1.0688918E+07   -1.0223162E-02    1.0667996E+07
    3.33   500.000   -2.864E+02    1.0948749E+07    1.0360410E+03    6.1213685E-03    1.0896104E+07   -1.4153687E-02    1.0877900E+07
    3.34   500.000   -2.869E+02    1.1066741E+07   -1.1443437E+03    8.2416747E-03    1.1020114E+07   -1.8038455E-02    1.1004709E+07
    3.35   500.000   -2.874E+02    1.1088891E+07   -3.6515967E+03    1.0871666E-02    1.1048971E+07   -2.1844092E-02    1.1037056E+07
    3.36   500.000   -2.879E+02    1.1009130E+07   -6.2481901E+03    1.3812512E-02    1.0976248E+07   -2.5542166E-02    1.0969041E+07
    3.37   500.000   -2.884E+02    1.0828331E+07   -8.6690521E+03    1.6837905E-02    1.0802423E+07   -2.9099687E-02    1.0801401E+07
    3.38   500.000   -2.889E+02    1.0554766E+07   -1.0663290E+04    1.9734981E-02    1.0535380E+07   -3.2469627E-02    1.0541909E+07
    3.39   500.000   -2.894E+02    1.0203490E+07   -1.2043910E+04    2.2338659E-02    1.0189845E+07   -3.5584496E-02    1.0204832E+07
    3.40   500.000   -2.898E+02    9.7947195E+06   -1.2730630E+04    2.4553137E-02    9.7857868E+06   -3.8354790E-02    9.8094716E+06
    3.41   500.000   -2.903E+02    9.3514331E+06   -1.2771031E+04    2.6357806E-02    9.3460476E+06   -4.0672591E-02    9.3779699E+06
    3.42   500.000   -2.908E+02    8.8966786E+06   -1.2332258E+04    2.7798486E-02    8.8936586E+06   -4.2419253E-02    8.9327824E+06
    3.43   500.000   -2.912E+02    8.4510787E+06   -1.1665362E+04    2.8967831E-02    8.4493446E+06   -4.3475618E-02    8.4942623E+06
    3.44   500.000   -2.917E+02    8.0309935E+06   -1.1052219E+04    2.9980396E-02    8.0296613E+06   -4.3733505E-02    8.0788110E+06
    3.45   500.000   -2.921E+02    7.6476090E+06   -1.0748521E+04    3.0948309E-02    7.6460357E+06   -4.3108064E-02    7.6978901E+06
    3.46   500.000   -2.926E+02    7.3069985E+06   -1.0935670E+04    3.1962831E-02    7.3047632E+06   -4.1550871E-02    7.3579797E+06
    3.47   500.000   -2.931E+02    7.0109784E+06   -1.1691038E+04    3.3085208E-02    7.0078053E+06   -3.9062765E-02    7.0613329E+06
    3.48   500.000   -2.935E+02    6.7584187E+06   -1.2981312E+04    3.4347320E-02    6.7540679E+06   -3.5703580E-02    6.8072029E+06
    3.49   500.000   -2.940E+02    6.5466096E+06   -1.4678660E+04    3.5759640E-02    6.5407761E+06   -3.1594802E-02    6.5931566E+06
    3.50   500.000   -2.944E+02    6.3723561E+06   -1.6594816E+04    3.7321837E-02    6.3646124E+06   -2.6912058E-02    6.4161492E+06
    3.51   500.000   -2.949E+02    6.2326306E+06   -1.8524403E+04    3.9031189E-02    6.2224294E+06   -2.1867414E-02    6.2731932E+06
    3.52   500.000   -2.954E+02    6.1248052E+06   -2.0286499E+04    4.0885647E-02    6.1115327E+06   -1.6685212E-02    6.1616354E+06
    3.53   500.000   -2.959E+02    6.0466154E+06   -2.1754083E+04    4.2881078E-02    6.0296671E+06   -1.1577378E-02    6.0791782E+06
    3.54   500.000   -2.964E+02    5.9960476E+06   -2.2865539E+04    4.5004631E-02    5.9748967E+06   -6.7238196E-03    6.0238152E+06
    3.55   500.000   -2.969E+02    5.9712860E+06   -2.3619168E+04    4.7227236E-02    5.9455273E+06   -2.2609280E-03    5.9937993E+06
    3.56   500.000   -2.975E+02    5.9707599E+06   -2.4057056E+04    4.9497860E-02    5.9401331E+06    1.7219315E-03    5.9876749E+06
    3.57   500.000   -2.980E+02    5.9932409E+06   -2.4245600E+04    5.1740802E-02    5.9576467E+06    5.1802249E-03    6.0043323E+06
    3.58   500.000   -2.986E+02    6.0378996E+06   -2.4257274E+04    5.3856152E-02    5.9974206E+06    8.1090333E-03    6.0430119E+06
    3.59   500.000   -2.991E+02    6.1042499E+06   -2.4155179E+04    5.5723277E-02    6.0591693E+06    1.0536615E-02    6.1032102E+06
    3.60   500.000   -2.997E+02    6.1919671E+06   -2.3981091E+04    5.7207796E-02    6.1427653E+06    1.2517384E-02    6.1844864E+06
    3.61   500.000   -3.003E+02    6.3006147E+06   -2.3748668E+04    5.8172884E-02    6.2479222E+06    1.4124376E-02    6.2862111E+06
    3.62   500.000   -3.009E+02    6.4293335E+06   -2.3443832E+04    5.8494914E-02    6.3738399E+06    1.5441372E-02    6.4073064E+06
    3.63   500.000   -3.014E+02    6.5765307E+06   -2.3032520E+04    5.8081293E-02    6.5188751E+06    1.6555179E-02    6.5460067E+06
    3.64   500.000   -3.020E+02    6.7395973E+06   -2.2473195E+04    5.6886280E-02    6.6802840E+06    1.7548610E-02    6.6996550E+06
    3.65   500.000   -3.026E+02    6.9146882E+06   -2.1729880E+04    5.4920153E-02    6.8540664E+06    1.8494472E-02    6.8645515E+06
    3.66   500.000   -3.032E+02    7.0966299E+06   -2.0782272E+04    5.2248934E-02    7.0349516E+06    1.9450560E-02    7.0358979E+06
    3.67   500.000   -3.038E+02    7.2790357E+06   -1.9631250E+04    4.8985043E-02    7.2165710E+06    2.0455728E-02    7.2078968E+06
    3.68   500.000   -3.044E+02    7.4546909E+06   -1.8299290E+04    4.5272134E-02    7.3918555E+06    2.1527540E-02    7.3740631E+06
    3.69   500.000   -3.050E+02    7.6162130E+06   -1.6825751E+04    4.1268812E-02    7.5536575E+06    2.2662539E-02    7.5277569E+06
    3.70   500.000   -3.056E+02    7.7569060E+06   -1.5257934E+04    3.7135423E-02    7.6955317E+06    2.3840416E-02    7.6628806E+06
    3.71   500.000   -3.062E+02    7.8716439E+06   -1.3640800E+04    3.3026243E-02    7.8125421E+06    2.5032771E-02    7.7746129E+06
    3.72   500.000   -3.068E+02    7.9575770E+06   -1.2009818E+04    2.9086730E-02    7.9019142E+06    2.6215657E-02    7.8600139E+06
    3.73   500.000   -3.073E+02    8.0144832E+06   -1.0390968E+04    2.5453388E-02    7.9633672E+06    2.7383181E-02    7.9183628E+06
    3.74   500.000   -3.079E+02    8.0446801E+06   -8.8086700E+03    2.2253017E-02    7.9990388E+06    2.8557840E-02    7.9511617E+06
    3.75   500.000   -3.084E+02    8.0525407E+06   -7.2977668E+03    1.9599113E-02    8.0130331E+06    2.9793191E-02    7.9618335E+06
    3.76   500.000   -3.090E+02    8.0437559E+06   -5.9120179E+03    1.7585215E-02    8.0107197E+06    3.1166213E-02    7.9552062E+06
    3.77   500.000   -3.095E+02    8.0245283E+06   -4.7213046E+03    1.6276995E-02    7.9979643E+06    3.2760051E-02    7.9368922E+06
    3.78   500.000   -3.100E+02    8.0008464E+06   -3.7942388E+03    1.5705601E-02    7.9804387E+06    3.4641332E-02    7.9126526E+06
    3.79   500.000   -3.105E+02    7.9779200E+06   -3.1710431E+03    1.5864049E-02    7.9630885E+06    3.6838326E-02    7.8878060E+06
    3.80   500.000   -3.109E+02    7.9597903E+06   -2.8393257E+03    1.6706711E-02    7.9497683E+06    3.9326048E-02    7.8667272E+06
    3.81   500.000   -3.114E+02    7.9491036E+06   -2.7270436E+03    1.8150576E-02    7.9430278E+06    4.2022200E-02    7.8524879E+06
    3.82   500.000   -3.118E+02    7.9470471E+06   -2.7195259E+03    2.0076841E-02    7.9440394E+06    4.4794398E-02    7.8466942E+06
    3.83   500.000   -3.123E+02    7.9534420E+06   -2.6942792E+03    2.2332806E-02    7.9526686E+06    4.7475816E-02    7.8495415E+06
    3.84   500.000   -3.127E+02    7.9669612E+06   -2.5571457E+03    2.4736056E-02    7.9676586E+06    4.9884357E-02    7.8600419E+06
    3.85   500.000   -3.131E+02    7.9853991E+06   -2.2636705E+03    2.7083942E-02    7.9868711E+06    5.1840635E-02    7.8763191E+06
    3.86   500.000   -3.135E+02    8.0059262E+06   -1.8199038E+03    2.9170348E-02    8.0075255E+06    5.3182416E-02    7.8958688E+06
    3.87   500.000   -3.139E+02    8.0253144E+06   -1.2691450E+03    3.0808656E-02    8.0264293E+06    5.3775916E-02    7.9157525E+06
    3.88   500.000   -3.143E+02    8.0401974E+06   -6.7642978E+02    3.1856362E-02    8.0402612E+06    5.3525517E-02    7.9327896E+06
    3.89   500.000   -3.147E+02    8.0474493E+06   -1.1852903E+02    3.2234693E-02    8.0459807E+06    5.2382045E-02    7.9438594E+06
    3.90   500.000   -3.151E+02    8.0447033E+06    3.2095904E+02    3.1937023E-02    8.0413709E+06    5.0347297E-02    7.9463707E+06
    3.91   500.000   -3.154E+02    8.0309150E+06    5.5683558E+02    3.1022700E-02    8.0256039E+06    4.7471717E-02    7.9388391E+06
    3.92   500.000   -3.158E+02    8.0067834E+06    5.1177434E+02    2.9597210E-02    7.9996374E+06    4.3844214E-02    7.9213912E+06
    3.93   500.000   -3.161E+02    7.9748492E+06    1.2862740E+02    2.7783883E-02    7.9662656E+06    3.9577070E-02    7.8959903E+06
    3.94   500.000   -3.165E+02    7.9391873E+06   -6.1968615E+02    2.5695237E-02    7.9297623E+06    3.4791728E-02    7.8662557E+06
    3.95   500.000   -3.168E+02    7.9047666E+06   -1.7271530E+03    2.3412349E-02    7.8952024E+06    2.9610947E-02    7.8369070E+06
    3.96   500.000   -3.172E+02    7.8766603E+06   -3.1588985E+03    2.0978025E-02    7.8676580E+06    2.4159474E-02    7.8129999E+06
    3.97   500.000   -3.175E+02    7.8593150E+06   -4.8597136E+03    1.8404945E-02    7.8514752E+06    1.8570908E-02    7.7991683E+06
    3.98   500.000   -3.178E+02    7.8560174E+06   -6.7637131E+03    1.5694907E-02    7.8497579E+06    1.2994970E-02    7.7990275E+06
    3.99   500.000   -3.181E+02    7.8685805E+06   -8.8040265E+03    1.2861625E-02    7.8640748E+06    7.5985198E-03    7.8147839E+06
    4.00   500.000   -3.185E+02    7.8971924E+06   -1.0922947E+04    9.9482773E-03    7.8943236E+06    2.5556892E-03    7.8470096E+06
    4.01   500.000   -3.188E+02    7.9403602E+06   -1.3082285E+04    7.0326719E-03    7.9386932E+06   -1.9729503E-03    7.8945295E+06
    4.02   500.000   -3.190E+02    7.9949478E+06   -1.5271588E+04    4.2170150E-03    7.9937258E+06   -5.8668124E-03    7.9544223E+06
    4.03   500.000   -3.193E+02    8.0563714E+06   -1.7510475E+04    1.6047104E-03    8.0545479E+06   -9.0681241E-03    8.0222002E+06
    4.04   500.000   -3.196E+02    8.1190294E+06   -1.9841927E+04   -7.2840955E-04    8.1153392E+06   -1.1592176E-02    8.0922276E+06
    4.05   500.000   -3.199E+02    8.1769678E+06   -2.2315958E+04   -2.7582208E-03    8.1700278E+06   -1.3520655E-02    8.1583736E+06
    4.06   500.000   -3.202E+02    8.2246641E+06   -2.4966558E+04   -4.5224163E-03    8.2130882E+06   -1.4980391E-02    8.2147819E+06
    4.07   500.000   -3.204E+02    8.2577251E+06   -2.7787843E+04   -6.1118306E-03    8.2402353E+06   -1.6114728E-02    8.2565706E+06
    4.08   500.000   -3.207E+02    8.2732881E+06   -3.0716614E+04   -7.6451668E-03    8.2488127E+06   -1.7055554E-02    8.2802764E+06
    4.09   500.000   -3.209E+02    8.2700006E+06   -3.3627238E+04   -9.2354899E-03    8.2377603E+06   -1.7901375E-02    8.2839312E+06
    4.10   500.000   -3.212E+02    8.2475930E+06   -3.6341157E+04   -1.0959298E-02    8.2071842E+06   -1.8703383E-02    8.2667728E+06
    4.11   500.000   -3.214E+02    8.2062039E+06   -3.8648777E+04   -1.2836784E-02    8.1576827E+06   -1.9459429E-02    8.2287075E+06
    4.12   500.000   -3.216E+02    8.1457121E+06   -4.0337838E+04   -1.4826824E-02    8.0896733E+06   -2.0115358E-02    8.1697263E+06
    4.13   500.000   -3.219E+02    8.0653292E+06   -4.1221147E+04   -1.6835337E-02    8.0029620E+06   -2.0573259E-02    8.0894933E+06
    4.14   500.000   -3.221E+02    7.9636176E+06   -4.1158100E+04   -1.8733204E-02    7.8967102E+06   -2.0705909E-02    7.9872691E+06
    4.15   500.000   -3.223E+02    7.8389425E+06   -4.0067500E+04   -2.0380027E-02    7.7698078E+06   -2.0376049E-02    7.8622116E+06
    4.16   500.000   -3.225E+02    7.6902019E+06   -3.7932044E+04   -2.1650942E-02    7.6215103E+06   -1.9458598E-02    7.7139481E+06
    4.17   500.000   -3.227E+02    7.5175842E+06   -3.4796122E+04   -2.2463591E-02    7.4521127E+06   -1.7863447E-02    7.5432090E+06
    4.18   500.000   -3.230E+02    7.3230999E+06   -3.0758528E+04   -2.2800647E-02    7.2634354E+06   -1.5555950E-02    7.3522907E+06
    4.19   500.000   -3.232E+02    7.1107291E+06   -2.5961223E+04   -2.2721363E-02    7.0589840E+06   -1.2571198E-02    7.1451865E+06
    4.20   500.000   -3.234E+02    6.8861613E+06   -2.0575449E+04   -2.2356078E-02    6.8437628E+06   -9.0176314E-03    6.9273508E+06
    4.21   500.000   -3.236E+02    6.6562206E+06   -1.4787270E+04   -2.1881816E-02    6.6238171E+06   -5.0665546E-03    6.7051795E+06
    4.22   500.000   -3.238E+02    6.4281272E+06   -8.7851478E+03   -2.1484116E-02    6.4056212E+06   -9.2735473E-04    6.4853441E+06
    4.23   500.000   -3.240E+02    6.2087455E+06   -2.7515470E+03   -2.1316427E-02    6.1954296E+06    3.1870698E-03    6.2741216E+06
    4.24   500.000   -3.243E+02    6.0039416E+06    3.1409051E+03   -2.1470124E-02    5.9986921E+06    7.0961681E-03    6.0768251E+06
    4.25   500.000   -3.245E+02    5.8181352E+06    8.7297406E+03   -2.1964038E-02    5.8196149E+06    1.0679060E-02    5.8974074E+06
    4.26   500.000   -3.247E+02    5.6541002E+06    1.3861698E+04   -2.2754448E-02    5.6609336E+06    1.3885924E-02    5.7382821E+06
    4.27   500.000   -3.250E+02    5.5130323E+06    1.8393666E+04   -2.3758857E-02    5.5239336E+06    1.6731489E-02    5.6003831E+06
    4.28   500.000   -3.252E+02    5.3948557E+06    2.2198599E+04   -2.4883157E-02    5.4087022E+06    1.9274857E-02    5.4834481E+06
    4.29   500.000   -3.255E+02    5.2986861E+06    2.5177256E+04   -2.6042852E-02    5.3145396E+06    2.1594111E-02    5.3864559E+06
    4.30   500.000   -3.257E+02    5.2233150E+06    2.7272604E+04   -2.7173342E-02    5.2403986E+06    2.3764493E-02    5.3080971E+06
    4.31   500.000   -3.260E+02    5.1675629E+06    2.8480840E+04   -2.8229252E-02    5.1852010E+06    2.5845638E-02    5.2471262E+06
    4.32   500.000   -3.263E+02    5.1303813E+06    2.8853741E+04   -2.9176481E-02    5.1479227E+06    2.7878330E-02    5.2024780E+06
    4.33   500.000   -3.266E+02    5.1106900E+06    2.8491294E+04   -2.9982304E-02    5.1274362E+06    2.9887198E-02    5.1731306E+06
    4.34   500.000   -3.268E+02    5.1070545E+06    2.7527802E+04   -3.0608503E-02    5.1222190E+06    3.1884281E-02    5.1578179E+06
    4.35   500.000   -3.271E+02    5.1173844E+06    2.6116293E+04   -3.1010564E-02    5.1301008E+06    3.3869790E-02    5.1547649E+06
    4.36   500.000   -3.274E+02    5.1388202E+06    2.4414948E+04   -3.1143221E-02    5.1482001E+06    3.5829259E-02    5.1615962E+06
    4.37   500.000   -3.277E+02    5.1678794E+06    2.2577619E+04   -3.0969877E-02    5.1731051E+06    3.7729012E-02    5.1754698E+06
    4.38   500.000   -3.281E+02    5.2008187E+06    2.0749890E+04   -3.0471765E-02    5.2012430E+06    3.9513264E-02    5.1933831E+06
    4.39   500.000   -3.284E+02    5.2340940E+06    1.9071297E+04   -2.9652520E-02    5.2293169E+06    4.1106002E-02    5.2125363E+06
    4.40   500.000   -3.287E+02    5.2647899E+06    1.7681915E+04   -2.8535542E-02    5.2546888E+06    4.2419375E-02    5.2306511E+06
    4.41   500.000   -3.290E+02    5.2909241E+06    1.6727817E+04   -2.7154459E-02    5.2756301E+06    4.3367963E-02    5.2461857E+06
    4.42   500.000   -3.293E+02    5.3115824E+06    1.6358374E+04   -2.5540157E-02    5.2914159E+06    4.3885334E-02    5.2584343E+06
    4.43   500.000   -3.296E+02    5.3268841E+06    1.6711396E+04   -2.3709647E-02    5.3022740E+06    4.3937131E-02    5.2675180E+06
    4.44   500.000   -3.299E+02    5.3378150E+06    1.7888481E+04   -2.1661493E-02    5.3092299E+06    4.3525015E-02    5.2742883E+06
    4.45   500.000   -3.302E+02    5.3459943E+06    1.9928296E+04   -1.9380008E-02    5.3139009E+06    4.2679026E-02    5.2801760E+06
    4.46   500.000   -3.305E+02    5.3534571E+06    2.2786492E+04   -1.6847304E-02    5.3183074E+06    4.1440964E-02    5.2870317E+06
    4.47   500.000   -3.309E+02    5.3625159E+06    2.6328083E+04   -1.4059953E-02    5.3247527E+06    3.9845299E-02    5.2970075E+06
    4.48   500.000   -3.312E+02    5.3757225E+06    3.0334094E+04   -1.1045919E-02    5.3357926E+06    3.7904684E-02    5.3125051E+06
    4.49   500.000   -3.315E+02    5.3958943E+06    3.4520969E+04   -7.8773158E-03    5.3542610E+06    3.5604361E-02    5.3361708E+06
    4.50   500.000   -3.318E+02    5.4261392E+06    3.8569033E+04   -4.6750939E-03    5.3832926E+06    3.2905848E-02    5.3708929E+06
    4.51   500.000   -3.321E+02    5.4698228E+06    4.2154943E+04   -1.6032586E-03    5.4262893E+06    2.9757559E-02    5.4197604E+06
    4.52   500.000   -3.324E+02    5.5304699E+06    4.4982869E+04    1.1474200E-03    5.4868209E+06    2.6109339E-02    5.4859767E+06
    4.53   500.000   -3.327E+02    5.6116369E+06    4.6810479E+04    3.3833731E-03    5.5684902E+06    2.1928373E-02    5.5727606E+06
    4.54   500.000   -3.330E+02    5.7168145E+06    4.7468093E+04    4.9347792E-03    5.6748183E+06    1.7214074E-02    5.6832812E+06
    4.55   500.000   -3.333E+02    5.8494015E+06    4.6871267E+04    5.6788400E-03    5.8091919E+06    1.2009128E-02    5.8206582E+06
    4.56   500.000   -3.336E+02    6.0127601E+06    4.5027108E+04    5.5549681E-03    5.9748885E+06    6.4034829E-03    5.9880320E+06
    4.57   500.000   -3.339E+02    6.2103233E+06    4.2033002E+04    4.5694014E-03    6.1751637E+06    5.2902487E-04    6.1886764E+06
    4.58   500.000   -3.342E+02    6.4457000E+06    3.8065079E+04    2.7895306E-03    6.4133549E+06   -5.4550431E-03    6.4261039E+06
    4.59   500.000   -3.346E+02    6.7227019E+06    3.3355132E+04    3.3063488E-04    6.6929341E+06   -1.1383253E-02    6.7040934E+06
    4.60   500.000   -3.349E+02    7.0452256E+06    2.8159439E+04   -2.6607057E-03    7.0174418E+06   -1.7106438E-02    7.0265778E+06
    4.61   500.000   -3.352E+02    7.4169479E+06    2.2728128E+04   -6.0217603E-03    7.3902485E+06   -2.2510246E-02    7.3973504E+06
    4.62   500.000   -3.355E+02    7.8408287E+06    1.7285011E+04   -9.5834268E-03    7.8141268E+06   -2.7524862E-02    7.8195837E+06
    4.63   500.000   -3.359E+02    8.3184489E+06    1.2022862E+04   -1.3173014E-02    8.2906434E+06   -3.2123227E-02    8.2951838E+06
    4.64   500.000   -3.362E+02    8.8492262E+06    7.1103850E+03   -1.6611754E-02    8.8194047E+06   -3.6308166E-02    8.8240177E+06
    4.65   500.000   -3.366E+02    9.4295730E+06    2.7005846E+03   -1.9711860E-02    9.3972168E+06   -4.0092354E-02    9.4030705E+06
    4.66   500.000   -3.369E+02    1.0052106E+07   -1.0694917E+03   -2.2278993E-02    1.0017270E+07   -4.3477836E-02    1.0025635E+07
    4.67   500.000   -3.373E+02    1.0705085E+07   -4.0909355E+03   -2.4124151E-02    1.0668525E+07   -4.6442432E-02    1.0680700E+07
    4.68   500.000   -3.377E+02    1.1372305E+07   -6.3019936E+03   -2.5084848E-02    1.1335525E+07   -4.8937923E-02    1.1352775E+07
    4.69   500.000   -3.381E+02    1.2033671E+07   -7.7040896E+03   -2.5050962E-02    1.1998857E+07   -5.0900405E-02    1.2022362E+07
    4.70   500.000   -3.385E+02    1.2666558E+07   -8.3663201E+03   -2.3987903E-02    1.2636388E+07   -5.2268649E-02    1.2667225E+07
    4.71   500.000   -3.389E+02    1.3247950E+07   -8.4158740E+03   -2.1949692E-02    1.3225272E+07   -5.3003741E-02    1.3264457E+07
    4.72   500.000   -3.393E+02    1.3757088E+07   -8.0188290E+03   -1.9077098E-02    1.3744526E+07   -5.3103775E-02    1.3793089E+07
    4.73   500.000   -3.398E+02    1.4178182E+07   -7.3598083E+03   -1.5580056E-02    1.4177743E+07   -5.2610079E-02    1.4236822E+07
    4.74   500.000   -3.402E+02    1.4502548E+07   -6.6277019E+03   -1.1707827E-02    1.4515321E+07   -5.1604874E-02    1.4586223E+07
    4.75   500.000   -3.406E+02    1.4729537E+07   -6.0087218E+03   -7.7134446E-03    1.4755561E+07   -5.0202747E-02    1.4839721E+07
    4.76   500.000   -3.411E+02    1.4865869E+07   -5.6812621E+03   -3.8199820E-03    1.4904161E+07   -4.8538809E-02    1.5003005E+07
    4.77   500.000   -3.415E+02    1.4923461E+07   -5.8042764E+03   -1.9506047E-04    1.4972181E+07   -4.6755137E-02    1.5086881E+07
    4.78   500.000   -3.419E+02    1.4916359E+07   -6.4948767E+03    3.0624923E-03    1.4973024E+07   -4.4985306E-02    1.5104213E+07
    4.79   500.000   -3.424E+02    1.4857682E+07   -7.7995752E+03    5.9226231E-03    1.4919375E+07   -4.3336388E-02    1.5066887E+07
    4.80   500.000   -3.428E+02    1.4757416E+07   -9.6712533E+03    8.4117938E-03    1.4820966E+07   -4.1869452E-02    1.4983685E+07
    4.81   500.000   -3.432E+02    1.4621554E+07   -1.1965101E+04    1.0591625E-02    1.4683697E+07   -4.0582605E-02    1.4859557E+07
    4.82   500.000   -3.436E+02    1.4452555E+07   -1.4460154E+04    1.2533373E-02    1.4510120E+07   -3.9402569E-02    1.4696275E+07
    4.83   500.000   -3.440E+02    1.4250790E+07   -1.6902165E+04    1.4294066E-02    1.4300927E+07   -3.8190400E-02    1.4494052E+07
    4.84   500.000   -3.445E+02    1.4016390E+07   -1.9054164E+04    1.5899302E-02    1.4056836E+07   -3.6763889E-02    1.4253486E+07
    4.85   500.000   -3.449E+02    1.3750983E+07   -2.0737776E+04    1.7335233E-02    1.3780299E+07   -3.4934727E-02    1.3977231E+07
    4.86   500.000   -3.453E+02    1.3458839E+07   -2.1852857E+04    1.8549501E-02    1.3476552E+07   -3.2553762E-02    1.3670956E+07
    4.87   500.000   -3.456E+02    1.3147184E+07   -2.2372791E+04    1.9459275E-02    1.3153778E+07   -2.9553848E-02    1.3343387E+07
    4.88   500.000   -3.460E+02    1.2825652E+07   -2.2323174E+04    1.9964398E-02    1.2822400E+07   -2.5978053E-02    1.3005496E+07
    4.89   500.000   -3.464E+02    1.2505111E+07   -2.1756863E+04    1.9964102E-02    1.2493814E+07   -2.1982839E-02    1.2669148E+07
    4.90   500.000   -3.468E+02    1.2196293E+07   -2.0736071E+04    1.9375703E-02    1.2178980E+07   -1.7811706E-02    1.2345673E+07
    4.91   500.000   -3.471E+02    1.1908682E+07   -1.9324689E+04    1.8152827E-02    1.1887354E+07   -1.3743695E-02    1.2044783E+07
    4.92   500.000   -3.475E+02    1.1649930E+07   -1.7587260E+04    1.6299638E-02    1.1626382E+07   -1.0030106E-02    1.1774101E+07
    4.93   500.000   -3.479E+02    1.1425815E+07   -1.5589631E+04    1.3877048E-02    1.1401551E+07   -6.8383984E-03    1.1539226E+07
    4.94   500.000   -3.482E+02    1.1240463E+07   -1.3399542E+04    1.0998117E-02    1.1216670E+07   -4.2215882E-03    1.1344063E+07
    4.95   500.000   -3.486E+02    1.1096463E+07   -1.1088653E+04    7.8126095E-03    1.1074024E+07   -2.1239310E-03    1.1190992E+07
    4.96   500.000   -3.489E+02    1.0994614E+07   -8.7369499E+03    4.4841466E-03    1.0974127E+07   -4.2158899E-04    1.1080654E+07
    4.97   500.000   -3.493E+02    1.0933321E+07   -6.4371296E+03    1.1659278E-03    1.0915099E+07    1.0149952E-03    1.1011345E+07
    4.98   500.000   -3.496E+02    1.0907883E+07   -4.2939231E+03   -2.0185553E-03    1.0891954E+07    2.2573024E-03    1.0978303E+07
    4.99   500.000   -3.500E+02    1.0910091E+07   -2.4139640E+03   -4.9850567E-03    1.0896209E+07    3.2733404E-03    1.0973308E+07
    5.00   500.000   -3.504E+02    1.0928477E+07   -8.8500676E+02   -7.6869012E-03    1.0916180E+07    3.9133758E-03    1.0984937E+07
# T(K) = 600.00   Npoints =    1001   V(cm^3) =  1.139E-20
   -5.00   600.000    3.629E+02    3.1831342E+06    2.8746602E+03    3.5702506E-03    3.1735153E+06    3.6195017E-03    3.1987815E+06
   -4.99   600.000    3.619E+02    3.2047341E+06    2.5373857E+03    2.9996882E-03    3.1936442E+06    3.7902707E-03    3.2223524E+06
   -4.98   600.000    3.610E+02    3.2206038E+06    2.2385773E+03    2.4328608E-03    3.2080286E+06    3.8761797E-03    3.2399181E+06
   -4.97   600.000    3.600E+02    3.2320302E+06    1.9836939E+03    1.9251262E-03    3.2180098E+06    3.8620596E-03    3.2528533E+06
   -4.96   600.000    3.591E+02    3.2403939E+06    1.7719502E+03    1.5210920E-03    3.2250306E+06    3.7318673E-03    3.2626169E+06
   -4.95   600.000    3.581E+02    3.2470516E+06    1.5959023E+03    1.2516249E-03    3.2305133E+06    3.4704057E-03    3.2706278E+06
   -4.94   600.000    3.572E+02    3.2532138E+06    1.4422458E+03    1.1318290E-03    3.2357317E+06    3.0651431E-03    3.2781380E+06
   -4.93   600.000    3.563E+02    3.2598328E+06    1.2938888E+03    1.1601413E-03    3.2416926E+06    2.5080732E-03    3.2861191E+06
   -4.92   600.000    3.555E+02    3.2675142E+06    1.1329621E+03    1.3187702E-03    3.2490409E+06    1.7975960E-03    3.2951723E+06
   -4.91   600.000    3.546E+02    3.2764594E+06    9.4411267E+02    1.5756891E-03    3.2579962E+06    9.4038068E-04    3.3054711E+06
   -4.90   600.000    3.537E+02    3.2864462E+06    7.1730447E+02    1.8882246E-03    3.2683313E+06   -4.6890837E-05    3.3167437E+06
   -4.89   600.000    3.529E+02    3.2968513E+06    4.4946069E+02    2.2079826E-03    3.2793946E+06   -1.1360950E-03    3.3283013E+06
   -4.88   600.000    3.521E+02    3.3067181E+06    1.4458694E+02    2.4865135E-03    3.2901815E+06   -2.2868598E-03    3.3391142E+06
   -4.87   600.000    3.512E+02    3.3148651E+06   -1.8757596E+02    2.6808441E-03    3.2994489E+06   -3.4467970E-03    3.3479323E+06
   -4.86   600.000    3.504E+02    3.3200252E+06   -5.3393828E+02    2.7579110E-03    3.3058607E+06   -4.5532431E-03    3.3534359E+06
   -4.85   600.000    3.496E+02    3.3209944E+06   -8.8082184E+02    2.6970836E-03    3.3081444E+06   -5.5368916E-03    3.3543955E+06
   -4.84   600.000    3.488E+02    3.3167673E+06   -1.2164110E+03    2.4903622E-03    3.3052326E+06   -6.3274148E-03    3.3498134E+06
   -4.83   600.000    3.480E+02    3.3066369E+06   -1.5323890E+03    2.1403856E-03    3.2963666E+06   -6.8607008E-03    3.3390225E+06
   -4.82   600.000    3.472E+02    3.2902429E+06   -1.8245447E+03    1.6569288E-03    3.2811484E+06   -7.0867872E-03    3.3217298E+06
   -4.81   600.000    3.465E+02    3.2675681E+06   -2.0924251E+03    1.0529279E-03    3.2595355E+06   -6.9771587E-03    3.2980005E+06
   -4.80   600.000    3.457E+02    3.2388883E+06   -2.3383188E+03    3.4111224E-04    3.2317909E+06   -6.5299564E-03    3.2681957E+06
   -4.79   600.000    3.449E+02    3.2046937E+06   -2.5659466E+03   -4.6797825E-04    3.1984009E+06   -5.7719348E-03    3.2328798E+06
   -4.78   600.000    3.442E+02    3.1655968E+06   -2.7792100E+03   -1.3663211E-03    3.1599802E+06   -4.7566083E-03    3.1927188E+06
   -4.77   600.000    3.434E+02    3.1222439E+06   -2.9812398E+03   -2.3473405E-03    3.1171809E+06   -3.5587876E-03    3.1483856E+06
   -4.76   600.000    3.427E+02    3.0752415E+06   -3.1738320E+03   -3.4040284E-03    3.0706172E+06   -2.2663742E-03    3.1004856E+06
   -4.75   600.000    3.419E+02    3.0251053E+06   -3.3572103E+03   -4.5269231E-03    3.0208136E+06   -9.7071088E-04    3.0495098E+06
   -4.74   600.000    3.412E+02    2.9722355E+06   -3.5299692E+03   -5.7024589E-03    2.9681799E+06    2.4308860E-04    2.9958187E+06
   -4.73   600.000    3.404E+02    2.9169166E+06   -3.6890551E+03   -6.9119610E-03    2.9130126E+06    1.3045226E-03    2.9396524E+06
   -4.72   600.000    3.397E+02    2.8593378E+06   -3.8297386E+03   -8.1313500E-03    2.8555146E+06    2.1637727E-03    2.8811610E+06
   -4.71   600.000    3.390E+02    2.7996232E+06   -3.9456536E+03   -9.3314995E-03    2.7958265E+06    2.7948004E-03    2.8204437E+06
   -4.70   600.000    3.383E+02    2.7378624E+06   -4.0290494E+03   -1.0479170E-02    2.7340566E+06    3.1952254E-03    2.7575842E+06
   -4.69   600.000    3.375E+02    2.6741341E+06   -4.0713772E+03   -1.1538470E-02    2.6703023E+06    3.3831861E-03    2.6926739E+06
   -4.68   600.000    3.368E+02    2.6085158E+06   -4.0641994E+03   -1.2472840E-02    2.6046594E+06    3.3918318E-03    2.6258186E+06
   -4.67   600.000    3.361E+02    2.5410835E+06   -4.0002619E+03   -1.3247564E-02    2.5372193E+06    3.2624557E-03    2.5571326E+06
   -4.66   600.000    3.354E+02    2.4719048E+06   -3.8744720E+03   -1.3832756E-02    2.4680612E+06    3.0374785E-03    2.4867241E+06
   -4.65   600.000    3.347E+02    2.4010310E+06   -3.6845503E+03   -1.4206626E-02    2.3972444E+06    2.7544407E-03    2.4146820E+06
   -4.64   600.000    3.341E+02    2.3284935E+06   -3.4312599E+03   -1.4358604E-02    2.3248042E+06    2.4418786E-03    2.3410674E+06
   -4.63   600.000    3.334E+02    2.2543048E+06   -3.1182884E+03   -1.4291742E-02    2.2507535E+06    2.1175145E-03    2.2659110E+06
   -4.62   600.000    3.327E+02    2.1784626E+06   -2.7519772E+03   -1.4023747E-02    2.1750875E+06    1.7887213E-03    2.1892171E+06
   -4.61   600.000    3.321E+02    2.1009571E+06   -2.3410849E+03   -1.3586165E-02    2.0977913E+06    1.4548369E-03    2.1109720E+06
   -4.60   600.000    3.315E+02    2.0217818E+06   -1.8966503E+03   -1.3021600E-02    2.0188511E+06    1.1106701E-03    2.0311571E+06
   -4.59   600.000    3.308E+02    1.9409480E+06   -1.4318414E+03   -1.2379281E-02    1.9382683E+06    7.5045072E-04    1.9497668E+06
   -4.58   600.000    3.303E+02    1.8585034E+06   -9.6157680E+02   -1.1709670E-02    1.8560801E+06    3.7150765E-04    1.8668315E+06
   -4.57   600.000    3.297E+02    1.7745548E+06   -5.0173624E+02   -1.1058999E-02    1.7723825E+06   -2.2937277E-05    1.7824427E+06
   -4.56   600.000    3.291E+02    1.6892899E+06   -6.7953824E+01   -1.0464587E-02    1.6873532E+06   -4.2229679E-04    1.6967771E+06
   -4.55   600.000    3.286E+02    1.6029944E+06    3.2579939E+02   -9.9516020E-03    1.6012701E+06   -8.0868635E-04    1.6101139E+06
   -4.54   600.000    3.281E+02    1.5160597E+06    6.6850296E+02   -9.5316393E-03    1.5145195E+06   -1.1585054E-03    1.5228411E+06
   -4.53   600.000    3.276E+02    1.4289770E+06    9.5292410E+02   -9.2031634E-03    1.4275906E+06   -1.4452664E-03    1.4354488E+06
   -4.52   600.000    3.271E+02    1.3423188E+06    1.1758375E+03   -8.9536114E-03    1.3410570E+06   -1.6432080E-03    1.3485085E+06
   -4.51   600.000    3.266E+02    1.2567092E+06    1.3376631E+03   -8.7627078E-03    1.2555461E+06   -1.7310982E-03    1.2626421E+06
   -4.50   600.000    3.262E+02    1.1727875E+06    1.4417121E+03   -8.6063932E-03    1.1717026E+06   -1.6955811E-03    1.1784855E+06
   -4.49   600.000    3.257E+02    1.0911721E+06    1.4932878E+03   -8.4607009E-03    1.0901502E+06   -1.5334781E-03    1.0966515E+06
   -4.48   600.000    3.253E+02    1.0124285E+06    1.4988551E+03   -8.3049760E-03    1.0114600E+06   -1.2526257E-03    1.0176989E+06
   -4.47   600.000    3.249E+02    9.3704829E+05    1.4654012E+03   -8.1240168E-03    9.3612806E+05   -8.7109903E-04    9.4211113E+05
   -4.46   600.000    3.246E+02    8.6543996E+05    1.4000161E+03   -7.9089947E-03    8.6456587E+05   -4.1499023E-04    8.7028818E+05
   -4.45   600.000    3.242E+02    7.9793142E+05    1.3096521E+03   -7.6572848E-03    7.9710306E+05    8.4814510E-05    8.0254955E+05
   -4.44   600.000    3.239E+02    7.3478178E+05    1.2009947E+03   -7.3715326E-03    7.3399926E+05    5.9624552E-04    7.3914710E+05
   -4.43   600.000    3.235E+02    6.7619706E+05    1.0803843E+03   -7.0583420E-03    6.7546035E+05    1.0894167E-03    6.8028174E+05
   -4.42   600.000    3.232E+02    6.2234476E+05    9.5375057E+02   -6.7269081E-03    6.2165356E+05    1.5392456E-03    6.2611904E+05
   -4.41   600.000    3.229E+02    5.7336343E+05    8.2654944E+02   -6.3877889E-03    5.7271749E+05    1.9270464E-03    5.7679948E+05
   -4.40   600.000    3.225E+02    5.2936557E+05    7.0370048E+02   -6.0518776E-03    5.2876523E+05    2.2410703E-03    5.3244161E+05
   -4.39   600.000    3.222E+02    4.9043423E+05    5.8952867E+02   -5.7295469E-03    4.8988108E+05    2.4761687E-03    4.9313822E+05
   -4.38   600.000    3.219E+02    4.5661512E+05    4.8771100E+02   -5.4299123E-03    4.5611240E+05    2.6328701E-03    4.5894743E+05
   -4.37   600.000    3.216E+02    4.2790629E+05    4.0122899E+02   -5.1601855E-03    4.2745897E+05    2.7161649E-03    4.2988075E+05
   -4.36   600.000    3.213E+02    4.0424721E+05    3.3233012E+02   -4.9251419E-03    4.0386159E+05    2.7342304E-03    4.0589025E+05
   -4.35   600.000    3.209E+02    3.8550870E+05    2.8250276E+02   -4.7267694E-03    3.8519171E+05    2.6972387E-03    3.8685675E+05
   -4.34   600.000    3.206E+02    3.7148513E+05    2.5246791E+02   -4.5641690E-03    3.7124335E+05    2.6163162E-03    3.7258051E+05
   -4.33   600.000    3.202E+02    3.6188991E+05    2.4218809E+02   -4.4337430E-03    3.6172870E+05    2.5026863E-03    3.6277605E+05
   -4.32   600.000    3.198E+02    3.5635543E+05    2.5089114E+02   -4.3296395E-03    3.5627835E+05    2.3670071E-03    3.5707228E+05
   -4.31   600.000    3.194E+02    3.5443812E+05    2.7710683E+02   -4.2443527E-03    3.5444698E+05    2.2189143E-03    3.5501853E+05
   -4.30   600.000    3.190E+02    3.5562881E+05    3.1871786E+02   -4.1693458E-03    3.5572421E+05    2.0667670E-03    3.5609653E+05
   -4.29   600.000    3.185E+02    3.5936792E+05    3.7303244E+02   -4.0955699E-03    3.5955037E+05    1.9175804E-03    3.5973748E+05
   -4.28   600.000    3.179E+02    3.6506429E+05    4.3689033E+02   -4.0138087E-03    3.6533547E+05    1.7771030E-03    3.6534274E+05
   -4.27   600.000    3.174E+02    3.7211627E+05    5.0681556E+02   -3.9148704E-03    3.7247999E+05    1.6499802E-03    3.7230620E+05
   -4.26   600.000    3.167E+02    3.7993331E+05    5.7922336E+02   -3.7897235E-03    3.8039582E+05    1.5399339E-03    3.8003642E+05
   -4.25   600.000    3.160E+02    3.8795664E+05    6.5067501E+02   -3.6297203E-03    3.8852596E+05    1.4499027E-03    3.8797710E+05
   -4.24   600.000    3.152E+02    3.9567799E+05    7.1815321E+02   -3.4270249E-03    3.9636231E+05    1.3821121E-03    3.9562485E+05
   -4.23   600.000    3.143E+02    4.0265581E+05    7.7930869E+02   -3.1752755E-03    4.0346123E+05    1.3380850E-03    4.0254390E+05
   -4.22   600.000    3.134E+02    4.0852823E+05    8.3261723E+02   -2.8703901E-03    4.0945646E+05    1.3186282E-03    4.0837763E+05
   -4.21   600.000    3.123E+02    4.1302246E+05    8.7739613E+02   -2.5113243E-03    4.1406887E+05    1.3238326E-03    4.1285657E+05
   -4.20   600.000    3.111E+02    4.1595974E+05    9.1366438E+02   -2.1005560E-03    4.1711233E+05    1.3531058E-03    4.1580258E+05
   -4.19   600.000    3.097E+02    4.1725522E+05    9.4188180E+02   -1.6441252E-03    4.1849451E+05    1.4052169E-03    4.1712854E+05
   -4.18   600.000    3.083E+02    4.1691222E+05    9.6264589E+02   -1.1511796E-03    4.1821212E+05    1.4783139E-03    4.1683299E+05
   -4.17   600.000    3.067E+02    4.1501103E+05    9.7643982E+02   -6.3312148E-04    4.1634043E+05    1.5698807E-03    4.1498967E+05
   -4.16   600.000    3.049E+02    4.1169309E+05    9.8350196E+02   -1.0256301E-04    4.1301783E+05    1.6766357E-03    4.1173263E+05
   -4.15   600.000    3.030E+02    4.0714221E+05    9.8383745E+02    4.2766715E-04    4.0842726E+05    1.7944212E-03    4.0723833E+05
   -4.14   600.000    3.009E+02    4.0156546E+05    9.7734090E+02    9.4526842E-04    4.0277707E+05    1.9181576E-03    4.0170717E+05
   -4.13   600.000    2.986E+02    3.9517642E+05    9.6396781E+02    1.4388766E-03    3.9628401E+05    2.0419311E-03    3.9534713E+05
   -4.12   600.000    2.962E+02    3.8818313E+05    9.4388908E+02    1.8981753E-03    3.8916086E+05    2.1592464E-03    3.8836177E+05
   -4.11   600.000    2.936E+02    3.8078228E+05    9.1758276E+02    2.3138483E-03    3.8161000E+05    2.2634262E-03    3.8094421E+05
   -4.10   600.000    2.909E+02    3.7315935E+05    8.8584657E+02    2.6775471E-03    3.7382294E+05    2.3481075E-03    3.7327695E+05
   -4.09   600.000    2.880E+02    3.6549350E+05    8.4974000E+02    2.9820122E-03    3.6598456E+05    2.4077655E-03    3.6553634E+05
   -4.08   600.000    2.849E+02    3.5796463E+05    8.1047903E+02    3.2213972E-03    3.5827954E+05    2.4382027E-03    3.5789945E+05
   -4.07   600.000    2.818E+02    3.5075994E+05    7.6930763E+02    3.3917442E-03    3.5089856E+05    2.4369536E-03    3.5055045E+05
   -4.06   600.000    2.785E+02    3.4407730E+05    7.2736296E+02    3.4914808E-03    3.4404139E+05    2.4035685E-03    3.4368405E+05
   -4.05   600.000    2.750E+02    3.3812362E+05    6.8554097E+02    3.5217873E-03    3.3791533E+05    2.3397442E-03    3.3750407E+05
   -4.04   600.000    2.715E+02    3.3310761E+05    6.4436437E+02    3.4867149E-03    3.3272815E+05    2.2492791E-03    3.3221647E+05
   -4.03   600.000    2.679E+02    3.2922778E+05    6.0385697E+02    3.3930110E-03    3.2867642E+05    2.1378336E-03    3.2801778E+05
   -4.02   600.000    2.642E+02    3.2665785E+05    5.6343564E+02    3.2496805E-03    3.2593136E+05    2.0124931E-03    3.2508103E+05
   -4.01   600.000    2.604E+02    3.2553253E+05    5.2183943E+02    3.0673683E-03    3.2462502E+05    1.8811495E-03    3.2354207E+05
   -4.00   600.000    2.565E+02    3.2593681E+05    4.7711722E+02    2.8576573E-03    3.2484010E+05    1.7517467E-03    3.2348954E+05
   -3.99   600.000    2.527E+02    3.2790122E+05    4.2669130E+02    2.6323608E-03    3.2660549E+05    1.6314621E-03    3.2496045E+05
   -3.98   600.000    2.487E+02    3.3140395E+05    3.6750284E+02    2.4028557E-03    3.2989866E+05    1.5259238E-03    3.2794239E+05
   -3.97   600.000    2.448E+02    3.3637942E+05    2.9623112E+02    2.1794788E-03    3.3465433E+05    1.4385777E-03    3.3238167E+05
   -3.96   600.000    2.408E+02    3.4273159E+05    2.0956392E+02    1.9710093E-03    3.4077762E+05    1.3703163E-03    3.3819575E+05
   -3.95   600.000    2.367E+02    3.5034972E+05    1.0448594E+02    1.7842749E-03    3.4815968E+05    1.3194467E-03    3.4528767E+05
   -3.94   600.000    2.326E+02    3.5912420E+05   -2.1453163E+01    1.6239358E-03    3.5669333E+05    1.2820273E-03    3.5356055E+05
   -3.93   600.000    2.285E+02    3.6896075E+05   -1.6992437E+02    1.4925028E-03    3.6628714E+05    1.2525304E-03    3.6293068E+05
   -3.92   600.000    2.244E+02    3.7979186E+05   -3.4167783E+02    1.3906085E-03    3.7687694E+05    1.2247207E-03    3.7333827E+05
   -3.91   600.000    2.203E+02    3.9158494E+05   -5.3647264E+02    1.3174942E-03    3.8843404E+05    1.1925898E-03    3.8475557E+05
   -3.90   600.000    2.161E+02    4.0434723E+05   -7.5305549E+02    1.2716018E-03    4.0097030E+05    1.1511661E-03    3.9719229E+05
   -3.89   600.000    2.119E+02    4.1812753E+05   -9.8915361E+02    1.2511109E-03    4.1453981E+05    1.0970447E-03    4.1069815E+05
   -3.88   600.000    2.077E+02    4.3301493E+05   -1.2414500E+03    1.2542732E-03    4.2923749E+05    1.0285431E-03    4.2536259E+05
   -3.87   600.000    2.035E+02    4.4913464E+05   -1.5055266E+03    1.2794603E-03    4.4519441E+05    9.4548406E-04    4.4131127E+05
   -3.86   600.000    1.994E+02    4.6664043E+05   -1.7757886E+03    1.3249590E-03    4.6256963E+05    8.4869562E-04    4.5869891E+05
   -3.85   600.000    1.953E+02    4.8570347E+05   -2.0454134E+03    1.3886591E-03    4.8153836E+05    7.3939188E-04    4.7769808E+05
   -3.84   600.000    1.912E+02    5.0649730E+05   -2.3063833E+03    1.4678311E-03    5.0227621E+05    6.1861581E-04    4.9848365E+05
   -3.83   600.000    1.872E+02    5.2917928E+05   -2.5496609E+03    1.5591615E-03    5.2494019E+05    4.8690190E-04    5.2121365E+05
   -3.82   600.000    1.833E+02    5.5387010E+05   -2.7655415E+03    1.6591019E-03    5.4964810E+05    3.4425235E-04    5.4600803E+05
   -3.81   600.000    1.795E+02    5.8063408E+05   -2.9441804E+03    1.7644582E-03    5.7645907E+05    1.9044224E-04    5.7292836E+05
   -3.80   600.000    1.758E+02    6.0946372E+05   -3.0762517E+03    1.8730436E-03    6.0535864E+05    2.5589795E-05    6.0196204E+05
   -3.79   600.000    1.722E+02    6.4027147E+05   -3.1536668E+03    1.9842035E-03    6.3625138E+05   -1.4913765E-04    6.3301399E+05
   -3.78   600.000    1.687E+02    6.7289014E+05   -3.1702621E+03    2.0990654E-03    6.6896230E+05   -3.3085424E-04    6.6590744E+05
   -3.77   600.000    1.654E+02    7.0708113E+05   -3.1223690E+03    2.2204570E-03    7.0324595E+05   -5.1450356E-04    7.0039267E+05
   -3.76   600.000    1.623E+02    7.4254763E+05   -3.0091914E+03    2.3525073E-03    7.3880033E+05   -6.9277104E-04    7.3616106E+05
   -3.75   600.000    1.593E+02    7.7894935E+05   -2.8329480E+03    2.4999858E-03    7.7528197E+05   -8.5643191E-04    7.7286087E+05
   -3.74   600.000    1.564E+02    8.1591715E+05   -2.5987763E+03    2.6674445E-03    8.1232048E+05   -9.9510324E-04    8.1011269E+05
   -3.73   600.000    1.538E+02    8.5306799E+05   -2.3144378E+03    2.8582295E-03    8.4953316E+05   -1.0982671E-03    8.4752533E+05
   -3.72   600.000    1.513E+02    8.9002357E+05   -1.9898921E+03    3.0734577E-03    8.8654319E+05   -1.1563661E-03    8.8471501E+05
   -3.71   600.000    1.489E+02    9.2643612E+05   -1.6368096E+03    3.3110946E-03    9.2300487E+05   -1.1617679E-03    9.2133123E+05
   -3.70   600.000    1.468E+02    9.6202198E+05   -1.2680676E+03    3.5653142E-03    9.5863705E+05   -1.1094584E-03    9.5709018E+05
   -3.69   600.000    1.448E+02    9.9659899E+05   -8.9723694E+02    3.8263274E-03    9.9326052E+05   -9.9742397E-04    9.9181146E+05
   -3.68   600.000    1.429E+02    1.0301181E+06   -5.3803991E+02    4.0808056E-03    1.0268299E+06   -8.2678687E-04    1.0254488E+06
   -3.67   600.000    1.412E+02    1.0626766E+06   -2.0375184E+02    4.3129013E-03    1.0594473E+06   -6.0180631E-04    1.0581028E+06
   -3.66   600.000    1.395E+02    1.0945034E+06    9.3461717E+01    4.5057085E-03    1.0913479E+06   -3.2984967E-04    1.0900051E+06
   -3.65   600.000    1.381E+02    1.1259113E+06    3.4325386E+02    4.6428724E-03    1.1228524E+06   -2.1376988E-05    1.1214711E+06
   -3.64   600.000    1.367E+02    1.1572245E+06    5.3780106E+02    4.7100039E-03    1.1542932E+06    3.1009021E-04    1.1528268E+06
   -3.63   600.000    1.354E+02    1.1886960E+06    6.7242228E+02    4.6956111E-03    1.1859315E+06    6.4809952E-04    1.1843266E+06
   -3.62   600.000    1.342E+02    1.2204378E+06    7.4599640E+02    4.5914115E-03    1.2178855E+06    9.7360842E-04    1.2160833E+06
   -3.61   600.000    1.331E+02    1.2523856E+06    7.6102854E+02    4.3920776E-03    1.2500931E+06    1.2656485E-03    1.2480323E+06
   -3.60   600.000    1.320E+02    1.2843110E+06    7.2320516E+02    4.0946368E-03    1.2823236E+06    1.5024070E-03    1.2799437E+06
   -3.59   600.000    1.310E+02    1.3158838E+06    6.4032021E+02    3.6978392E-03    1.3142382E+06    1.6627679E-03    1.3114834E+06
   -3.58   600.000    1.301E+02    1.3467676E+06    5.2057469E+02    3.2017987E-03    1.3454872E+06    1.7282603E-03    1.3423085E+06
   -3.57   600.000    1.292E+02    1.3767238E+06    3.7044462E+02    2.6081164E-03    1.3758139E+06    1.6852239E-03    1.3721714E+06
   -3.56   600.000    1.283E+02    1.4056903E+06    1.9252739E+02    1.9205297E-03    1.4051348E+06    1.5268638E-03    1.4009978E+06
   -3.55   600.000    1.274E+02    1.4338080E+06   -1.6067928E+01    1.1459498E-03    1.4335677E+06    1.2547777E-03    1.4289144E+06
   -3.54   600.000    1.266E+02    1.4613847E+06   -2.6420576E+02    2.9559800E-04    1.4613968E+06    8.7955703E-04    1.4562135E+06
   -3.53   600.000    1.258E+02    1.4888017E+06   -5.6566957E+02   -6.1413118E-04    1.4889810E+06    4.2019858E-04    1.4832614E+06
   -3.52   600.000    1.250E+02    1.5163909E+06   -9.3647834E+02   -1.5614360E-03    1.5166322E+06   -9.7712011E-05    1.5103785E+06
   -3.51   600.000    1.242E+02    1.5443146E+06   -1.3909034E+03   -2.5197535E-03    1.5444976E+06   -6.4483435E-04    1.5377226E+06
   -3.50   600.000    1.235E+02    1.5724830E+06   -1.9369337E+03   -3.4593600E-03    1.5724784E+06   -1.1915090E-03    1.5652088E+06
   -3.49   600.000    1.227E+02    1.6005270E+06   -2.5722490E+03   -4.3497851E-03    1.6002051E+06   -1.7112549E-03    1.5924858E+06
   -3.48   600.000    1.219E+02    1.6278338E+06   -3.2818380E+03   -5.1626894E-03    1.6270735E+06   -2.1837685E-03    1.6189712E+06
   -3.47   600.000    1.211E+02    1.6536314E+06   -4.0381470E+03   -5.8746985E-03    1.6523289E+06   -2.5969413E-03    1.6439344E+06
   -3.46   600.000    1.204E+02    1.6771005E+06   -4.8040477E+03   -6.4696396E-03    1.6751768E+06   -2.9475830E-03    1.6666047E+06
   -3.45   600.000    1.196E+02    1.6974891E+06   -5.5381236E+03   -6.9397208E-03    1.6948938E+06   -3.2407670E-03    1.6862783E+06
   -3.44   600.000    1.188E+02    1.7142056E+06   -6.2010939E+03   -7.2854215E-03    1.7109182E+06   -3.4879632E-03    1.7024062E+06
   -3.43   600.000    1.180E+02    1.7268782E+06   -6.7618936E+03   -7.5141558E-03    1.7229052E+06   -3.7043318E-03    1.7146470E+06
   -3.42   600.000    1.171E+02    1.7353736E+06   -7.2021536E+03   -7.6380420E-03    1.7307434E+06   -3.9056694E-03    1.7228830E+06
   -3.41   600.000    1.163E+02    1.7397777E+06   -7.5184060E+03   -7.6712739E-03    1.7345344E+06   -4.1055176E-03    1.7272003E+06
   -3.40   600.000    1.155E+02    1.7403471E+06   -7.7219964E+03   -7.6276070E-03    1.7345437E+06   -4.3128866E-03    1.7278430E+06
   -3.39   600.000    1.146E+02    1.7374427E+06   -7.8371213E+03   -7.5183781E-03    1.7311356E+06   -4.5309300E-03    1.7251498E+06
   -3.38   600.000    1.137E+02    1.7314596E+06   -7.8975295E+03   -7.3513106E-03    1.7247042E+06   -4.7567608E-03    1.7194889E+06
   -3.37   600.000    1.129E+02    1.7227666E+06   -7.9423193E+03   -7.1301956E-03    1.7156149E+06   -4.9824112E-03    1.7112010E+06
   -3.36   600.000    1.120E+02    1.7116666E+06   -8.0111101E+03   -6.8554019E-03    1.7041670E+06   -5.1967236E-03    1.7005632E+06
   -3.35   600.000    1.110E+02    1.6983854E+06   -8.1388299E+03   -6.5250603E-03    1.6905841E+06   -5.3877472E-03    1.6877800E+06
   -3.34   600.000    1.101E+02    1.6830891E+06   -8.3505110E+03   -6.1366851E-03    1.6750328E+06   -5.5450748E-03    1.6730020E+06
   -3.33   600.000    1.092E+02    1.6659239E+06   -8.6567536E+03   -5.6889180E-03    1.6576629E+06   -5.6615568E-03    1.6563656E+06
   -3.32   600.000    1.082E+02    1.6470661E+06   -9.0507756E+03   -5.1830449E-03    1.6386570E+06   -5.7339986E-03    1.6380419E+06
   -3.31   600.000    1.073E+02    1.6267682E+06   -9.5080010E+03   -4.6239552E-03    1.6182756E+06   -5.7627545E-03    1.6182819E+06
   -3.30   600.000    1.063E+02    1.6053893E+06   -9.9888081E+03   -4.0203114E-03    1.5968852E+06   -5.7504583E-03    1.5974447E+06
   -3.29   600.000    1.053E+02    1.5834005E+06   -1.0444334E+04   -3.3838618E-03    1.5749622E+06   -5.7003657E-03    1.5760020E+06
   -3.28   600.000    1.043E+02    1.5613656E+06   -1.0824311E+04   -2.7280219E-03    1.5530713E+06   -5.6148396E-03    1.5545180E+06
   -3.27   600.000    1.033E+02    1.5398980E+06   -1.1085188E+04   -2.0660243E-03    1.5318211E+06   -5.4943912E-03    1.5336065E+06
   -3.26   600.000    1.023E+02    1.5196004E+06   -1.1196583E+04   -1.4090611E-03    1.5118042E+06   -5.3374650E-03    1.5138715E+06
   -3.25   600.000    1.013E+02    1.5009977E+06   -1.1144648E+04   -7.6486913E-04    1.4935302E+06   -5.1409233E-03    1.4958397E+06
   -3.24   600.000    1.003E+02    1.4844695E+06   -1.0931916E+04   -1.3714056E-04    1.4773612E+06   -4.9010329E-03    1.4798943E+06
   -3.23   600.000    9.925E+01    1.4701950E+06   -1.0574256E+04    4.7404046E-04    1.4634588E+06   -4.6146911E-03    1.4662175E+06
   -3.22   600.000    9.822E+01    1.4581181E+06   -1.0096237E+04    1.0707871E-03    1.4517514E+06   -4.2806497E-03    1.4547547E+06
   -3.21   600.000    9.720E+01    1.4479410E+06   -9.5263804E+03    1.6553410E-03    1.4419292E+06   -3.9005362E-03    1.4452048E+06
   -3.20   600.000    9.617E+01    1.4391482E+06   -8.8933709E+03    2.2278579E-03    1.4334687E+06   -3.4795117E-03    1.4370425E+06
   -3.19   600.000    9.514E+01    1.4310604E+06   -8.2237532E+03    2.7846195E-03    1.4256856E+06   -3.0264339E-03    1.4295707E+06
   -3.18   600.000    9.411E+01    1.4229103E+06   -7.5410173E+03    3.3171416E-03    1.4178095E+06   -2.5534333E-03    1.4219973E+06
   -3.17   600.000    9.307E+01    1.4139301E+06   -6.8656166E+03    3.8124217E-03    1.4090700E+06   -2.0748885E-03    1.4135250E+06
   -3.16   600.000    9.203E+01    1.4034370E+06   -6.2153514E+03    4.2542973E-03    1.3987817E+06   -1.6059011E-03    1.4034418E+06
   -3.15   600.000    9.098E+01    1.3909076E+06   -5.6056919E+03    4.6256410E-03    1.3864176E+06   -1.1605033E-03    1.3912000E+06
   -3.14   600.000    8.992E+01    1.3760297E+06   -5.0498648E+03    4.9109577E-03    1.3716622E+06   -7.4992696E-04    1.3764732E+06
   -3.13   600.000    8.885E+01    1.3587301E+06   -4.5587680E+03    5.0988904E-03    1.3544390E+06   -3.8128583E-04    1.3591868E+06
   -3.12   600.000    8.777E+01    1.3391751E+06   -4.1408732E+03    5.1841647E-03    1.3349123E+06   -5.6944896E-05    1.3395196E+06
   -3.11   600.000    8.667E+01    1.3177483E+06   -3.8022432E+03    5.1686084E-03    1.3134641E+06    2.2530863E-04    1.3178778E+06
   -3.10   600.000    8.555E+01    1.2950074E+06   -3.5466549E+03    5.0610529E-03    1.2906513E+06    4.7137176E-04    1.2948489E+06
   -3.09   600.000    8.442E+01    1.2716273E+06   -3.3757161E+03    4.8761302E-03    1.2671474E+06    6.8945565E-04    1.2711381E+06
   -3.08   600.000    8.325E+01    1.2483340E+06   -3.2888290E+03    4.6321969E-03    1.2436758E+06    8.8857170E-04    1.2474984E+06
   -3.07   600.000    8.206E+01    1.2258371E+06   -3.2829225E+03    4.3487846E-03    1.2209421E+06    1.0771908E-03    1.2246594E+06
   -3.06   600.000    8.083E+01    1.2047681E+06   -3.3519884E+03    4.0440478E-03    1.1995724E+06    1.2622891E-03    1.2032641E+06
   -3.05   600.000    7.956E+01    1.1856314E+06   -3.4865680E+03    3.7326419E-03    1.1800651E+06    1.4488458E-03    1.1838202E+06
   -3.04   600.000    7.825E+01    1.1687736E+06   -3.6734067E+03    3.4243260E-03    1.1627620E+06    1.6397154E-03    1.1666714E+06
   -3.03   600.000    7.690E+01    1.1543754E+06   -3.8955094E+03    3.1234079E-03    1.1478414E+06    1.8357076E-03    1.1519906E+06
   -3.02   600.000    7.549E+01    1.1424664E+06   -4.1327884E+03    2.8289776E-03    1.1353345E+06    2.0356908E-03    1.1397972E+06
   -3.01   600.000    7.403E+01    1.1329585E+06   -4.3633869E+03    2.5357570E-03    1.1251605E+06    2.2365950E-03    1.1299920E+06
   -3.00   600.000    7.251E+01    1.1256927E+06   -4.5656034E+03    2.2353398E-03    1.1171739E+06    2.4333014E-03    1.1224058E+06
   -2.99   600.000    7.092E+01    1.1204894E+06   -4.7201481E+03    1.9176003E-03    1.1112155E+06    2.6185309E-03    1.1168510E+06
   -2.98   600.000    6.927E+01    1.1171935E+06   -4.8123153E+03    1.5720903E-03    1.1071566E+06    2.7829232E-03    1.1131678E+06
   -2.97   600.000    6.755E+01    1.1157070E+06   -4.8336182E+03    1.1892888E-03    1.1049306E+06    2.9154902E-03    1.1112574E+06
   -2.96   600.000    6.576E+01    1.1160052E+06   -4.7825424E+03    7.6161685E-04    1.1045465E+06    3.0045299E-03    1.1110979E+06
   -2.95   600.000    6.390E+01    1.1181351E+06   -4.6642990E+03    2.8416218E-04    1.1060848E+06    3.0389207E-03    1.1127422E+06
   -2.94   600.000    6.197E+01    1.1222001E+06   -4.4897028E+03   -2.4490699E-04    1.1096788E+06    3.0095664E-03    1.1163008E+06
   -2.93   600.000    5.998E+01    1.1283343E+06   -4.2734593E+03   -8.2422688E-04    1.1154863E+06    2.9106734E-03    1.1219140E+06
   -2.92   600.000    5.792E+01    1.1366718E+06   -4.0321886E+03   -1.4493798E-03    1.1236552E+06    2.7405576E-03    1.1297194E+06
   -2.91   600.000    5.580E+01    1.1473138E+06   -3.7824608E+03   -2.1132295E-03    1.1342893E+06    2.5017752E-03    1.1398174E+06
   -2.90   600.000    5.363E+01    1.1602968E+06   -3.5390287E+03   -2.8063803E-03    1.1474161E+06    2.2005261E-03    1.1522395E+06
   -2.89   600.000    5.142E+01    1.1755647E+06   -3.3133869E+03   -3.5176861E-03    1.1629600E+06    1.8454434E-03    1.1669206E+06
   -2.88   600.000    4.919E+01    1.1929481E+06   -3.1127533E+03   -4.2347428E-03    1.1807235E+06    1.4460134E-03    1.1836801E+06
   -2.87   600.000    4.693E+01    1.2121524E+06   -2.9395667E+03   -4.9442987E-03    1.2003794E+06    1.0109543E-03    1.2022127E+06
   -2.86   600.000    4.468E+01    1.2327599E+06   -2.7915586E+03   -5.6325407E-03    1.2214770E+06    5.4687826E-04    1.2220932E+06
   -2.85   600.000    4.243E+01    1.2542457E+06   -2.6623946E+03   -6.2852463E-03    1.2434619E+06    5.7502508E-05    1.2427947E+06
   -2.84   600.000    4.022E+01    1.2760072E+06   -2.5427849E+03   -6.8878532E-03    1.2657079E+06   -4.5644175E-04    1.2637206E+06
   -2.83   600.000    3.804E+01    1.2974030E+06   -2.4218817E+03   -7.4255514E-03    1.2875587E+06   -9.9657499E-04    1.2842451E+06
   -2.82   600.000    3.592E+01    1.3177961E+06   -2.2887526E+03   -7.8835386E-03    1.3083705E+06   -1.5655985E-03    1.3037569E+06
   -2.81   600.000    3.387E+01    1.3365945E+06   -2.1337601E+03   -8.2475581E-03    1.3275523E+06   -2.1655733E-03    1.3216982E+06
   -2.80   600.000    3.189E+01    1.3532833E+06   -1.9497530E+03   -8.5047667E-03    1.3445968E+06   -2.7960164E-03    1.3375957E+06
   -2.79   600.000    3.000E+01    1.3674465E+06   -1.7330419E+03   -8.6448632E-03    1.3590989E+06   -3.4521473E-03    1.3510782E+06
   -2.78   600.000    2.819E+01    1.3787756E+06   -1.4841431E+03   -8.6613029E-03    1.3707633E+06   -4.1236453E-03    1.3618814E+06
   -2.77   600.000    2.648E+01    1.3870672E+06   -1.2082286E+03   -8.5523557E-03    1.3793992E+06   -4.7942497E-03    1.3698419E+06
   -2.76   600.000    2.487E+01    1.3922118E+06   -9.1516417E+02   -8.3217736E-03    1.3849077E+06   -5.4424290E-03    1.3748814E+06
   -2.75   600.000    2.335E+01    1.3941751E+06   -6.1898899E+02   -7.9789124E-03    1.3872625E+06   -6.0431667E-03    1.3769868E+06
   -2.74   600.000    2.193E+01    1.3929766E+06   -3.3674394E+02   -7.5382746E-03    1.3864870E+06   -6.5706913E-03    1.3761854E+06
   -2.73   600.000    2.059E+01    1.3886667E+06   -8.6677441E+01   -7.0185674E-03    1.3826310E+06   -7.0017662E-03    1.3725229E+06
   -2.72   600.000    1.934E+01    1.3813075E+06    1.1397187E+02   -6.4414450E-03    1.3757517E+06   -7.3189970E-03    1.3660436E+06
   -2.71   600.000    1.818E+01    1.3709602E+06    2.5125301E+02   -5.8301234E-03    1.3659008E+06   -7.5135755E-03    1.3567793E+06
   -2.70   600.000    1.709E+01    1.3576823E+06    3.1638701E+02   -5.2080055E-03    1.3531224E+06   -7.5869507E-03    1.3447493E+06
   -2.69   600.000    1.607E+01    1.3415363E+06    3.0684255E+02   -4.5973890E-03    1.3374632E+06   -7.5511073E-03    1.3299710E+06
   -2.68   600.000    1.512E+01    1.3226069E+06    2.2637814E+02   -4.0182710E-03    1.3189913E+06   -7.4273744E-03    1.3124810E+06
   -2.67   600.000    1.423E+01    1.3010233E+06    8.4117390E+01   -3.4872509E-03    1.2978199E+06   -7.2439316E-03    1.2923600E+06
   -2.66   600.000    1.340E+01    1.2769787E+06   -1.0700196E+02   -3.0165671E-03    1.2741285E+06   -7.0323724E-03    1.2697545E+06
   -2.65   600.000    1.262E+01    1.2507400E+06   -3.3193969E+02   -2.6133626E-03    1.2481740E+06   -6.8238072E-03    1.2448889E+06
   -2.64   600.000    1.189E+01    1.2226429E+06   -5.7503782E+02   -2.2793172E-03    1.2202859E+06   -6.6450335E-03    1.2180628E+06
   -2.63   600.000    1.120E+01    1.1930701E+06   -8.2111310E+02   -2.0107716E-03    1.1908448E+06   -6.5152803E-03    1.1896298E+06
   -2.62   600.000    1.056E+01    1.1624145E+06   -1.0562212E+03   -1.7993973E-03    1.1602458E+06   -6.4439522E-03    1.1599634E+06
   -2.61   600.000    9.952E+00    1.1310361E+06   -1.2682700E+03   -1.6333608E-03    1.1288540E+06   -6.4296723E-03    1.1294137E+06
   -2.60   600.000    9.380E+00    1.0992204E+06   -1.4476243E+03   -1.4988484E-03    1.0969633E+06   -6.4607562E-03    1.0982674E+06
   -2.59   600.000    8.841E+00    1.0671510E+06   -1.5877106E+03   -1.3817872E-03    1.0647671E+06   -6.5170750E-03    1.0667183E+06
   -2.58   600.000    8.331E+00    1.0349002E+06   -1.6854963E+03   -1.2696090E-03    1.0323486E+06   -6.5730776E-03    1.0348567E+06
   -2.57   600.000    7.849E+00    1.0024407E+06   -1.7416474E+03   -1.1529080E-03    9.9969070E+05   -6.6015765E-03    1.0026772E+06
   -2.56   600.000    7.393E+00    9.6967193E+05   -1.7601947E+03   -1.0268039E-03    9.6670180E+05   -6.5777563E-03    9.7010249E+05
   -2.55   600.000    6.960E+00    9.3645364E+05   -1.7476422E+03   -8.9175574E-04    9.3324888E+05   -6.4827901E-03    9.3701302E+05
   -2.54   600.000    6.549E+00    9.0263766E+05   -1.7116099E+03   -7.5354333E-04    8.9918982E+05   -6.3064826E-03    9.0327771E+05
   -2.53   600.000    6.160E+00    8.6809318E+05   -1.6592663E+03   -6.2222845E-04    8.6439946E+05   -6.0485198E-03    8.6877830E+05
   -2.52   600.000    5.790E+00    8.3272350E+05   -1.5959248E+03   -5.1014140E-04    8.2878760E+05   -5.7181737E-03    8.3342684E+05
   -2.51   600.000    5.439E+00    7.9647622E+05   -1.5241871E+03   -4.2924686E-04    7.9230992E+05   -5.3326163E-03    7.9717687E+05
   -2.50   600.000    5.105E+00    7.5934915E+05   -1.4438815E+03   -3.8849443E-04    7.5497416E+05   -4.9142399E-03    7.6003047E+05
   -2.49   600.000    4.788E+00    7.2139373E+05   -1.3527991E+03   -3.9182222E-04    7.1684269E+05   -4.4875089E-03    7.2204236E+05
   -2.48   600.000    4.488E+00    6.8271579E+05   -1.2479715E+03   -4.3730770E-04    6.7803198E+05   -4.0758532E-03    6.8332087E+05
   -2.47   600.000    4.203E+00    6.4347263E+05   -1.1270683E+03   -5.1760830E-04    6.3870798E+05   -3.6990197E-03    6.4402502E+05
   -2.46   600.000    3.932E+00    6.0386554E+05   -9.8950222E+02   -6.2145103E-04    5.9907734E+05   -3.3711600E-03    6.0435701E+05
   -2.45   600.000    3.677E+00    5.6412823E+05   -8.3697880E+02   -7.3566890E-04    5.5937504E+05   -3.0998141E-03    5.6455080E+05
   -2.44   600.000    3.435E+00    5.2451294E+05   -6.7343935E+02   -8.4722886E-04    5.1985067E+05   -2.8858257E-03    5.2485873E+05
   -2.43   600.000    3.208E+00    4.8527716E+05   -5.0452426E+02   -9.4483547E-04    4.8075599E+05   -2.7241138E-03    4.8553890E+05
   -2.42   600.000    2.993E+00    4.4667345E+05   -3.3677086E+02   -1.0199283E-03    4.4233594E+05   -2.6051081E-03    4.4684548E+05
   -2.41   600.000    2.792E+00    4.0894347E+05   -1.7676032E+02   -1.0671017E-03    4.0482392E+05   -2.5165685E-03    4.0902303E+05
   -2.40   600.000    2.605E+00    3.7231591E+05   -3.0374336E+01   -1.0840871E-03    3.6844053E+05   -2.4454735E-03    3.7230416E+05
   -2.39   600.000    2.430E+00    3.3700631E+05    9.7746047E+01   -1.0714499E-03    3.3339396E+05   -2.3796904E-03    3.3690886E+05
   -2.38   600.000    2.268E+00    3.0321673E+05    2.0450587E+02   -1.0321032E-03    2.9987968E+05   -2.3092254E-03    3.0304341E+05
   -2.37   600.000    2.118E+00    2.7113361E+05    2.8843508E+02   -9.7069811E-04    2.6807820E+05   -2.2269593E-03    2.7089757E+05
   -2.36   600.000    1.982E+00    2.4092319E+05    3.4957816E+02   -8.9293714E-04    2.3815032E+05   -2.1288810E-03    2.4063961E+05
   -2.35   600.000    1.857E+00    2.1272527E+05    3.8924875E+02   -8.0487041E-04    2.1023079E+05   -2.0139011E-03    2.1240987E+05
   -2.34   600.000    1.745E+00    1.8664630E+05    4.0970941E+02   -7.1225555E-04    1.8442152E+05   -1.8833680E-03    1.8631407E+05
   -2.33   600.000    1.643E+00    1.6275359E+05    4.1383114E+02   -6.2005904E-04    1.6078584E+05   -1.7404151E-03    1.6241779E+05
   -2.32   600.000    1.553E+00    1.4107158E+05    4.0477454E+02   -5.3215088E-04    1.3934500E+05   -1.5892550E-03    1.4074316E+05
   -2.31   600.000    1.473E+00    1.2158115E+05    3.8571878E+02   -4.5120190E-04    1.2007749E+05   -1.4345145E-03    1.2126847E+05
   -2.30   600.000    1.403E+00    1.0422189E+05    3.5965094E+02   -3.7875260E-04    1.0292145E+05   -1.2806794E-03    1.0393079E+05
   -2.29   600.000    1.342E+00    8.8897188E+04    3.2921908E+02   -3.1539695E-04    8.7779633E+04   -1.1316883E-03    8.8631259E+04
   -2.28   600.000    1.289E+00    7.5481245E+04    2.9664605E+02   -2.6101926E-04    7.4526363E+04   -9.9068757E-04    7.5242171E+04
   -2.27   600.000    1.244E+00    6.3827223E+04    2.6369687E+02   -2.1503214E-04    6.3015517E+04   -8.5993415E-04    6.3615201E+04
   -2.26   600.000    1.204E+00    5.3775520E+04    2.3168955E+02   -1.7658191E-04    5.3088651E+04   -7.4081742E-04    5.3589658E+04
   -2.25   600.000    1.171E+00    4.5161451E+04    2.0153717E+02   -1.4470606E-04    4.4582530E+04   -6.3396113E-04    4.5000120E+04
   -2.24   600.000    1.143E+00    3.7821775E+04    1.7380876E+02   -1.1844121E-04    3.7335521E+04   -5.3936866E-04    3.7682904E+04
   -2.23   600.000    1.119E+00    3.1599798E+04    1.4879783E+02   -9.6888761E-05    3.1192595E+04   -4.5658059E-04    3.1481102E+04
   -2.22   600.000    1.099E+00    2.6349011E+04    1.2658973E+02   -7.9248273E-05    2.6008875E+04   -3.8482323E-04    2.6248161E+04
   -2.21   600.000    1.082E+00    2.1935358E+04    1.0712228E+02   -6.4828858E-05    2.1651857E+04   -3.2313556E-04    2.1850096E+04
   -2.20   600.000    1.068E+00    1.8238378E+04    9.0236380E+01   -5.3047099E-05    1.8002513E+04   -2.7046974E-04    1.8166592E+04
   -2.19   600.000    1.057E+00    1.5151446E+04    7.5715904E+01   -4.3417672E-05    1.4955511E+04   -2.2576521E-04    1.5091210E+04
   -2.18   600.000    1.047E+00    1.2581382E+04    6.3317452E+01   -3.5540879E-05    1.2418821E+04   -1.8799944E-04    1.2530976E+04
   -2.17   600.000    1.039E+00    1.0447633E+04    5.2791269E+01   -2.9089594E-05    1.0312898E+04   -1.5621979E-04    1.0405541E+04
   -2.16   600.000    1.032E+00    8.6812145E+03    4.3895095E+01   -2.3797006E-05    8.5696314E+03   -1.2956074E-04    8.6461201E+03
   -2.15   600.000    1.026E+00    7.2235383E+03    3.6402587E+01   -1.9445759E-05    7.1311825E+03   -1.0725071E-04    7.1943056E+03
   -2.14   600.000    1.021E+00    6.0252298E+03    3.0107783E+01   -1.5858702E-05    5.9488162E+03   -8.8611824E-05    6.0008871E+03
   -2.13   600.000    1.018E+00    5.0449934E+03    2.4826822E+01   -1.2891164E-05    4.9817785E+03   -7.3055084E-05    5.0247135E+03
   -2.12   600.000    1.014E+00    4.2485685E+03    2.0397844E+01   -1.0424602E-05    4.1962649E+03   -6.0073034E-05    4.2316496E+03
   -2.11   600.000    1.012E+00    3.6077971E+03    1.6679769E+01   -8.3614148E-06    3.5645003E+03   -4.9231099E-05    3.5936451E+03
   -2.10   600.000    1.009E+00    3.0998126E+03    1.3550427E+01   -6.6207178E-06    3.0639376E+03   -4.0158596E-05    3.0879244E+03
   -2.09   600.000    1.007E+00    2.7063505E+03    1.0904392E+01   -5.1348964E-06    2.6765784E+03   -3.2539924E-05    2.6962994E+03
   -2.08   600.000    1.006E+00    2.4131789E+03    8.6507217E+00   -3.8467879E-06    2.3884114E+03   -2.6106267E-05    2.4046012E+03
   -2.07   600.000    1.004E+00    2.2096419E+03    6.7107370E+00   -2.7073596E-06    2.1889627E+03   -2.0627979E-05    2.2022254E+03
   -2.06   600.000    1.003E+00    2.0883104E+03    5.0159242E+00   -1.6737825E-06    2.0709531E+03   -1.5907674E-05    2.0817839E+03
   -2.05   600.000    1.001E+00    2.0447343E+03    3.5059872E+00   -7.0782207E-07    2.0300546E+03   -1.1774023E-05    2.0388587E+03
   -2.04   600.000    1.000E+00    2.0772902E+03    2.1270690E+00    2.2551223E-07    2.0647432E+03   -8.0761770E-06    2.0718504E+03
   -2.03   600.000    9.989E-01    2.1871228E+03    8.3014248E-01    1.1590958E-06    2.1762433E+03   -4.6787325E-06    2.1819202E+03
   -2.02   600.000    9.977E-01    2.3781768E+03   -4.3043344E-01    2.1246130E-06    2.3685625E+03   -1.4571458E-06    2.3730228E+03
   -2.01   600.000    9.964E-01    2.6573185E+03   -1.6981894E+00    3.1532700E-06    2.6486159E+03    1.7065168E-06    2.6520284E+03
   -2.00   600.000    9.949E-01    3.0345498E+03   -3.0156433E+00    4.2762595E-06    3.0264422E+03    4.9275877E-06    3.0289373E+03
   -1.99   600.000    9.933E-01    3.5233159E+03   -4.4251906E+00    5.5249084E-06    3.5155124E+03    8.3226647E-06    3.5171873E+03
   -1.98   600.000    9.914E-01    4.1409072E+03   -5.9697339E+00    6.9303876E-06    4.1331341E+03    1.2013426E-05    4.1340570E+03
   -1.97   600.000    9.892E-01    4.9089605E+03   -7.6929625E+00    8.5228098E-06    4.9009536E+03    1.6130475E-05    4.9011670E+03
   -1.96   600.000    9.866E-01    5.8540567E+03   -9.6391477E+00    1.0329459E-05    5.8455544E+03    2.0817302E-05    5.8450780E+03
   -1.95   600.000    9.835E-01    7.0084107E+03   -1.1852262E+01    1.2371809E-05    6.9991500E+03    2.6234415E-05    6.9979827E+03
   -1.94   600.000    9.799E-01    8.4106454E+03   -1.4374161E+01    1.4660883E-05    8.4003583E+03    3.2563734E-05    8.3984808E+03
   -1.93   600.000    9.755E-01    1.0106627E+04   -1.7241505E+01    1.7190404E-05    1.0095040E+04    4.0013314E-05    1.0092417E+04
   -1.92   600.000    9.703E-01    1.2150329E+04   -2.0481017E+01    1.9927112E-05    1.2137166E+04    4.8822503E-05    1.2133749E+04
   -1.91   600.000    9.641E-01    1.4604680E+04   -2.4102646E+01    2.2797636E-05    1.4589665E+04    5.9267665E-05    1.4585399E+04
   -1.90   600.000    9.567E-01    1.7542311E+04   -2.8090246E+01    2.5671445E-05    1.7525184E+04    7.1668633E-05    1.7520008E+04
   -1.89   600.000    9.479E-01    2.1046127E+04   -3.2389493E+01    2.8339825E-05    2.1026654E+04    8.6396075E-05    2.1020515E+04
   -1.88   600.000    9.375E-01    2.5209577E+04   -3.6893090E+01    3.0491633E-05    2.5187569E+04    1.0387989E-04    2.5180431E+04
   -1.87   600.000    9.251E-01    3.0136486E+04   -4.1423814E+01    3.1687814E-05    3.0111827E+04    1.2461852E-04    3.0103685E+04
   -1.86   600.000    9.106E-01    3.5940338E+04   -4.5716693E+01    3.1338415E-05    3.5913003E+04    1.4918843E-04    3.5903900E+04
   -1.85   600.000    8.936E-01    4.2742872E+04   -4.9402476E+01    2.8687755E-05    4.2712944E+04    1.7825222E-04    4.2702987E+04
   -1.84   600.000    8.738E-01    5.0671917E+04   -5.1995396E+01    2.2814914E-05    5.0639594E+04    2.1256218E-04    5.0628970E+04
   -1.83   600.000    8.508E-01    5.9858477E+04   -5.2888755E+01    1.2656646E-05    5.9824043E+04    2.5295477E-04    5.9813026E+04
   -1.82   600.000    8.243E-01    7.0433113E+04   -5.1361804E+01   -2.9431860E-06    7.0396881E+04    3.0033076E-04    7.0385816E+04
   -1.81   600.000    7.941E-01    8.2521789E+04   -4.6600715E+01   -2.5160792E-05    8.2483996E+04    3.5561602E-04    8.2473269E+04
   -1.80   600.000    7.597E-01    9.6241421E+04   -3.7735355E+01   -5.5111087E-05    9.6202076E+04    4.1970055E-04    9.6192047E+04
   -1.79   600.000    7.210E-01    1.1169540E+05   -2.3892633E+01   -9.3787141E-05    1.1165410E+05    4.9335592E-04    1.1164500E+05
   -1.78   600.000    6.776E-01    1.2896942E+05   -4.2667328E+00   -1.4206346E-04    1.2892514E+05    5.7713049E-04    1.2891699E+05
   -1.77   600.000    6.295E-01    1.4812800E+05    2.1793986E+01   -2.0081385E-04    1.4807892E+05    6.7121314E-04    1.4807142E+05
   -1.76   600.000    5.764E-01    1.6921214E+05    5.4685789E+01   -2.7119095E-04    1.6915554E+05    7.7523896E-04    1.6914803E+05
   -1.75   600.000    5.184E-01    1.9223870E+05    9.4441763E+01   -3.5509576E-04    1.9217088E+05    8.8799141E-04    1.9216249E+05
   -1.74   600.000    4.553E-01    2.1720191E+05    1.4063326E+02   -4.5582719E-04    2.1711827E+05    1.0069552E-03    2.1710816E+05
   -1.73   600.000    3.871E-01    2.4407723E+05    1.9230397E+02   -5.7884418E-04    2.4397235E+05    1.1277104E-03    2.4396026E+05
   -1.72   600.000    3.140E-01    2.7282708E+05    2.4796155E+02   -7.3249935E-04    2.7269497E+05    1.2432411E-03    2.7268187E+05
   -1.71   600.000    2.359E-01    3.0340728E+05    3.0564364E+02   -9.2853040E-04    3.0324157E+05    1.3433368E-03    3.0323059E+05
   -1.70   600.000    1.529E-01    3.3577214E+05    3.6305846E+02   -1.1820517E-03    3.3556641E+05    1.4143515E-03    3.3556362E+05
   -1.69   600.000    6.521E-02    3.6987618E+05    4.1778128E+02   -1.5108107E-03    3.6962428E+05    1.4395932E-03    3.6963946E+05
   -1.68   600.000   -2.713E-02    4.0567098E+05    4.6747458E+02   -1.9335813E-03    4.0536751E+05    1.4005280E-03    4.0541448E+05
   -1.67   600.000   -1.240E-01    4.4309718E+05    5.1009627E+02   -2.4677529E-03    4.4273798E+05    1.2788049E-03    4.4283456E+05
   -1.66   600.000   -2.253E-01    4.8207324E+05    5.4406726E+02   -3.1263845E-03    4.8165595E+05    1.0588823E-03    4.8182346E+05
   -1.65   600.000   -3.309E-01    5.2248410E+05    5.6838133E+02   -3.9151667E-03    5.2200873E+05    7.3085036E-04    5.2227114E+05
   -1.64   600.000   -4.408E-01    5.6417375E+05    5.8264945E+02   -4.8298017E-03    5.6364303E+05    2.9293521E-04    5.6402600E+05
   -1.63   600.000   -5.548E-01    6.0694499E+05    5.8707339E+02   -5.8542731E-03    6.0636446E+05   -2.4680459E-04    6.0689447E+05
   -1.62   600.000   -6.729E-01    6.5056878E+05    5.8234149E+02   -6.9603532E-03    6.4994638E+05   -8.6993987E-04    6.5064998E+05
   -1.61   600.000   -7.950E-01    6.9480275E+05    5.6944167E+02   -8.1085489E-03    6.9414782E+05   -1.5484382E-03    6.9505114E+05
   -1.60   600.000   -9.209E-01    7.3941664E+05    5.4940085E+02   -9.2505414E-03    7.3873830E+05   -2.2466880E-03    7.3986655E+05
   -1.59   600.000   -1.051E+00    7.8421970E+05    5.2298842E+02   -1.0333021E-02    7.8352463E+05   -2.9245923E-03    7.8490160E+05
   -1.58   600.000   -1.184E+00    8.2908403E+05    4.9045365E+02   -1.1302620E-02    8.2837422E+05   -3.5414602E-03    8.3002149E+05
   -1.57   600.000   -1.321E+00    8.7395791E+05    4.5138742E+02   -1.2111434E-02    8.7322859E+05   -4.0603458E-03    8.7516481E+05
   -1.56   600.000   -1.461E+00    9.1886414E+05    4.0478914E+02   -1.2722420E-02    9.1810280E+05   -4.4523780E-03    9.2034293E+05
   -1.55   600.000   -1.604E+00    9.6388152E+05    3.4937356E+02   -1.3113932E-02    9.6306814E+05   -4.7005031E-03    9.6562307E+05
   -1.54   600.000   -1.751E+00    1.0091103E+06    2.8407840E+02   -1.3282750E-02    1.0082192E+06   -4.8019940E-03    1.0110956E+06
   -1.53   600.000   -1.901E+00    1.0546259E+06    2.0865656E+02   -1.3245166E-02    1.0536290E+06   -4.7691394E-03    1.0568295E+06
   -1.52   600.000   -2.054E+00    1.1004292E+06    1.2418688E+02   -1.3035895E-02    1.0992996E+06   -4.6277105E-03    1.1028222E+06
   -1.51   600.000   -2.210E+00    1.1464004E+06    3.3336269E+01   -1.2704624E-02    1.1451160E+06   -4.4131105E-03    1.1489541E+06
   -1.50   600.000   -2.370E+00    1.1922684E+06   -5.9742239E+01   -1.2310153E-02    1.1908146E+06   -4.1644710E-03    1.1949552E+06
   -1.49   600.000   -2.533E+00    1.2376016E+06   -1.4990081E+02   -1.1912232E-02    1.2359720E+06   -3.9173614E-03    1.2403949E+06
   -1.48   600.000   -2.699E+00    1.2818260E+06   -2.3180026E+02   -1.1561758E-02    1.2800214E+06   -3.6961654E-03    1.2846985E+06
   -1.47   600.000   -2.869E+00    1.3242698E+06   -3.0085737E+02   -1.1290601E-02    1.3222955E+06   -3.5074756E-03    1.3271905E+06
   -1.46   600.000   -3.041E+00    1.3642288E+06   -3.5411212E+02   -1.1103002E-02    1.3620901E+06   -3.3359266E-03    1.3671609E+06
   -1.45   600.000   -3.217E+00    1.4010425E+06   -3.9078866E+02   -1.0970641E-02    1.3987400E+06   -3.1436158E-03    1.4039414E+06
   -1.44   600.000   -3.396E+00    1.4341667E+06   -4.1238667E+02   -1.0833063E-02    1.4316922E+06   -2.8736442E-03    1.4369803E+06
   -1.43   600.000   -3.578E+00    1.4632329E+06   -4.2225979E+02   -1.0604104E-02    1.4605661E+06   -2.4574788E-03    1.4659019E+06
   -1.42   600.000   -3.762E+00    1.4880832E+06   -4.2478294E+02   -1.0183545E-02    1.4851906E+06   -1.8250153E-03    1.4905427E+06
   -1.41   600.000   -3.949E+00    1.5087817E+06   -4.2432626E+02   -9.4720061E-03    1.5056169E+06   -9.1565091E-04    1.5109608E+06
   -1.40   600.000   -4.139E+00    1.5256008E+06   -4.2429494E+02   -8.3863258E-03    1.5221062E+06    3.1150880E-04    1.5274217E+06
   -1.39   600.000   -4.331E+00    1.5389901E+06   -4.2644595E+02   -6.8726226E-03    1.5351001E+06    1.8699826E-03    1.5403658E+06
   -1.38   600.000   -4.525E+00    1.5495350E+06   -4.3058333E+02   -4.9148764E-03    1.5451784E+06    3.7419689E-03    1.5503658E+06
   -1.37   600.000   -4.722E+00    1.5579089E+06   -4.3461620E+02   -2.5378266E-03    1.5530123E+06    5.8787024E-03    1.5580807E+06
   -1.36   600.000   -4.922E+00    1.5648268E+06   -4.3488330E+02    1.9593171E-04    1.5593177E+06    8.2050648E-03    1.5642113E+06
   -1.35   600.000   -5.124E+00    1.5710035E+06   -4.2662558E+02    3.1938463E-03    1.5648136E+06    1.0627818E-02    1.5694615E+06
   -1.34   600.000   -5.329E+00    1.5771207E+06   -4.0451117E+02    6.3448099E-03    1.5701888E+06    1.3046277E-02    1.5745084E+06
   -1.33   600.000   -5.537E+00    1.5838068E+06   -3.6315764E+02    9.5321559E-03    1.5760820E+06    1.5363763E-02    1.5799844E+06
   -1.32   600.000   -5.748E+00    1.5916304E+06   -2.9762615E+02    1.2646200E-02    1.5830749E+06    1.7497948E-02    1.5864710E+06
   -1.31   600.000   -5.962E+00    1.6011075E+06   -2.0386492E+02    1.5594435E-02    1.5916982E+06    1.9388239E-02    1.5945046E+06
   -1.30   600.000   -6.180E+00    1.6127168E+06   -7.9060475E+01    1.8307953E-02    1.6024458E+06    2.0998932E-02    1.6045881E+06
   -1.29   600.000   -6.401E+00    1.6269178E+06    7.8167040E+01    2.0743392E-02    1.6157906E+06    2.2317742E-02    1.6172044E+06
   -1.28   600.000   -6.625E+00    1.6441644E+06    2.6778767E+02    2.2880628E-02    1.6321963E+06    2.3350406E-02    1.6328234E+06
   -1.27   600.000   -6.852E+00    1.6649094E+06    4.8863036E+02    2.4717306E-02    1.6521205E+06    2.4113030E-02    1.6519026E+06
   -1.26   600.000   -7.082E+00    1.6896002E+06    7.3885652E+02    2.6261965E-02    1.6760088E+06    2.4624306E-02    1.6748778E+06
   -1.25   600.000   -7.315E+00    1.7186665E+06    1.0165343E+03    2.7527763E-02    1.7042829E+06    2.4899655E-02    1.7021505E+06
   -1.24   600.000   -7.550E+00    1.7525028E+06    1.3201781E+03    2.8528472E-02    1.7373240E+06    2.4948519E-02    1.7340728E+06
   -1.23   600.000   -7.786E+00    1.7914495E+06    1.6491270E+03    2.9277657E-02    1.7754562E+06    2.4775003E-02    1.7709346E+06
   -1.22   600.000   -8.025E+00    1.8357724E+06    2.0036668E+03    2.9790940E-02    1.8189280E+06    2.4380964E-02    1.8129512E+06
   -1.21   600.000   -8.266E+00    1.8856401E+06    2.3848253E+03    3.0090258E-02    1.8678939E+06    2.3770060E-02    1.8602522E+06
   -1.20   600.000   -8.509E+00    1.9411006E+06    2.7937878E+03    3.0208455E-02    1.9223929E+06    2.2951203E-02    1.9128684E+06
   -1.19   600.000   -8.754E+00    2.0020538E+06    3.2309232E+03    3.0192498E-02    1.9823254E+06    2.1940347E-02    1.9707158E+06
   -1.18   600.000   -9.001E+00    2.0682226E+06    3.6945219E+03    3.0104099E-02    2.0474267E+06    2.0760333E-02    2.0335754E+06
   -1.17   600.000   -9.251E+00    2.1391242E+06    4.1795110E+03    3.0017230E-02    2.1172405E+06    1.9439245E-02    2.1010705E+06
   -1.16   600.000   -9.503E+00    2.2140438E+06    4.6765634E+03    3.0012798E-02    2.1910941E+06    1.8008186E-02    2.1726419E+06
   -1.15   600.000   -9.758E+00    2.2920186E+06    5.1720392E+03    3.0171137E-02    2.2680814E+06    1.6499325E-02    2.2475273E+06
   -1.14   600.000   -1.002E+01    2.3718397E+06    5.6490181E+03    3.0563141E-02    2.3470611E+06    1.4944619E-02    2.3247493E+06
   -1.13   600.000   -1.028E+01    2.4520815E+06    6.0893298E+03    3.1240884E-02    2.4266800E+06    1.3374993E-02    2.4031244E+06
   -1.12   600.000   -1.054E+01    2.5311671E+06    6.4761105E+03    3.2228645E-02    2.5054290E+06    1.1819390E-02    2.4813001E+06
   -1.11   600.000   -1.081E+01    2.6074718E+06    6.7961848E+03    3.3515492E-02    2.5817356E+06    1.0303099E-02    2.5578260E+06
   -1.10   600.000   -1.108E+01    2.6794547E+06    7.0416189E+03    3.5050860E-02    2.6540859E+06    8.8452397E-03    2.6312563E+06
   -1.09   600.000   -1.136E+01    2.7458004E+06    7.2100924E+03    3.6744661E-02    2.7211598E+06    7.4558909E-03    2.7002713E+06
   -1.08   600.000   -1.164E+01    2.8055475E+06    7.3041744E+03    3.8473141E-02    2.7819577E+06    6.1338443E-03    2.7637994E+06
   -1.07   600.000   -1.192E+01    2.8581807E+06    7.3299750E+03    4.0090789E-02    2.8358974E+06    4.8660339E-03    2.8211201E+06
   -1.06   600.000   -1.221E+01    2.9036748E+06    7.2958220E+03    4.1447277E-02    2.8828676E+06    3.6293050E-03    2.8719343E+06
   -1.05   600.000   -1.249E+01    2.9424901E+06    7.2115186E+03    4.2406924E-02    2.9232360E+06    2.3944610E-03    2.9163961E+06
   -1.04   600.000   -1.279E+01    2.9755279E+06    7.0884057E+03    4.2867131E-02    2.9578164E+06    1.1317707E-03    2.9551062E+06
   -1.03   600.000   -1.308E+01    3.0040578E+06    6.9400331E+03    4.2772096E-02    2.9878052E+06   -1.8336059E-04    2.9890729E+06
   -1.02   600.000   -1.337E+01    3.0296228E+06    6.7829328E+03    4.2119060E-02    3.0146912E+06   -1.5658903E-03    3.0196394E+06
   -1.01   600.000   -1.367E+01    3.0539245E+06    6.6369405E+03    4.0956129E-02    3.0401411E+06   -3.0187575E-03    3.0483794E+06
   -1.00   600.000   -1.397E+01    3.0786854E+06    6.5247446E+03    3.9372793E-02    3.0658589E+06   -4.5329683E-03    3.0769582E+06
   -0.99   600.000   -1.427E+01    3.1054888E+06    6.4707073E+03    3.7485823E-02    3.0934217E+06   -6.0898912E-03    3.1069637E+06
   -0.98   600.000   -1.457E+01    3.1356067E+06    6.4992923E+03    3.5423825E-02    3.1241032E+06   -7.6650568E-03    3.1397200E+06
   -0.97   600.000   -1.488E+01    3.1698364E+06    6.6334647E+03    3.3313295E-02    3.1587070E+06   -9.2324956E-03    3.1761089E+06
   -0.96   600.000   -1.519E+01    3.2083746E+06    6.8932245E+03    3.1267835E-02    3.1974382E+06   -1.0768572E-02    3.2164281E+06
   -0.95   600.000   -1.550E+01    3.2507581E+06    7.2941367E+03    2.9380868E-02    3.2398442E+06   -1.2254393E-02    3.2603188E+06
   -0.94   600.000   -1.582E+01    3.2958954E+06    7.8455670E+03    2.7721225E-02    3.2848449E+06   -1.3676275E-02    3.3067842E+06
   -0.93   600.000   -1.614E+01    3.3421955E+06    8.5484543E+03    2.6330750E-02    3.3308622E+06   -1.5024352E-02    3.3543082E+06
   -0.92   600.000   -1.646E+01    3.3877852E+06    9.3928152E+03    2.5223379E-02    3.3760377E+06   -1.6290193E-02    3.4010664E+06
   -0.91   600.000   -1.679E+01    3.4307883E+06    1.0355580E+04    2.4385894E-02    3.4185115E+06   -1.7464752E-02    3.4452022E+06
   -0.90   600.000   -1.712E+01    3.4696228E+06    1.1399568E+04    2.3781008E-02    3.4567205E+06   -1.8537977E-02    3.4851270E+06
   -0.89   600.000   -1.746E+01    3.5032675E+06    1.2474292E+04    2.3353410E-02    3.4896656E+06   -1.9500736E-02    3.5197952E+06
   -0.88   600.000   -1.780E+01    3.5314477E+06    1.3518873E+04    2.3038705E-02    3.5170994E+06   -2.0348640E-02    3.5489021E+06
   -0.87   600.000   -1.814E+01    3.5547036E+06    1.4466873E+04    2.2774087E-02    3.5395961E+06   -2.1086398E-02    3.5729652E+06
   -0.86   600.000   -1.849E+01    3.5743267E+06    1.5252407E+04    2.2508683E-02    3.5584903E+06   -2.1730902E-02    3.5932728E+06
   -0.85   600.000   -1.885E+01    3.5921777E+06    1.5816721E+04    2.2211148E-02    3.5756952E+06   -2.2311657E-02    3.6117082E+06
   -0.84   600.000   -1.920E+01    3.6104234E+06    1.6114295E+04    2.1872682E-02    3.5934390E+06   -2.2868143E-02    3.6304883E+06
   -0.83   600.000   -1.956E+01    3.6312478E+06    1.6117622E+04    2.1504805E-02    3.6139724E+06   -2.3444753E-02    3.6518682E+06
   -0.82   600.000   -1.993E+01    3.6565904E+06    1.5819903E+04    2.1132657E-02    3.6393023E+06   -2.4084646E-02    3.6778705E+06
   -0.81   600.000   -2.030E+01    3.6879556E+06    1.5235165E+04    2.0785733E-02    3.6709945E+06   -2.4823868E-02    3.7100815E+06
   -0.80   600.000   -2.067E+01    3.7263124E+06    1.4395737E+04    2.0488469E-02    3.7100666E+06   -2.5686704E-02    3.7495374E+06
   -0.79   600.000   -2.104E+01    3.7720816E+06    1.3347459E+04    2.0252995E-02    3.7569699E+06   -2.6682584E-02    3.7966992E+06
   -0.78   600.000   -2.142E+01    3.8251884E+06    1.2143459E+04    2.0075668E-02    3.8116381E+06   -2.7804535E-02    3.8514975E+06
   -0.77   600.000   -2.181E+01    3.8851516E+06    1.0837501E+04    1.9938024E-02    3.8735752E+06   -2.9029016E-02    3.9134179E+06
   -0.76   600.000   -2.219E+01    3.9511799E+06    9.4778783E+03    1.9811615E-02    3.9419537E+06   -3.0317128E-02    3.9816021E+06
   -0.75   600.000   -2.259E+01    4.0222589E+06    8.1026396E+03    1.9665229E-02    4.0157067E+06   -3.1617332E-02    4.0549445E+06
   -0.74   600.000   -2.299E+01    4.0972209E+06    6.7366905E+03    1.9472351E-02    4.0936031E+06   -3.2869788E-02    4.1321768E+06
   -0.73   600.000   -2.339E+01    4.1747985E+06    5.3911231E+03    1.9216699E-02    4.1743102E+06   -3.4012155E-02    4.2119387E+06
   -0.72   600.000   -2.380E+01    4.2536699E+06    4.0649062E+03    1.8894365E-02    4.2564446E+06   -3.4986291E-02    4.2928365E+06
   -0.71   600.000   -2.422E+01    4.3324985E+06    2.7487472E+03    1.8512243E-02    4.3386203E+06   -3.5744815E-02    4.3734941E+06
   -0.70   600.000   -2.464E+01    4.4099753E+06    1.4304894E+03    1.8083774E-02    4.4194956E+06   -3.6256303E-02    4.4525984E+06
   -0.69   600.000   -2.506E+01    4.4848663E+06    1.0094083E+02    1.7623827E-02    4.4978243E+06   -3.6507920E-02    4.5289461E+06
   -0.68   600.000   -2.550E+01    4.5560682E+06   -1.2412262E+03    1.7144680E-02    4.5725113E+06   -3.6504789E-02    4.6014926E+06
   -0.67   600.000   -2.594E+01    4.6226699E+06   -2.5867202E+03    1.6654318E-02    4.6426718E+06   -3.6266041E-02    4.6694047E+06
   -0.66   600.000   -2.638E+01    4.6840141E+06   -3.9156443E+03    1.6157257E-02    4.7076847E+06   -3.5818206E-02    4.7321103E+06
   -0.65   600.000   -2.683E+01    4.7397459E+06   -5.2000598E+03    1.5657118E-02    4.7672303E+06   -3.5187199E-02    4.7893343E+06
   -0.64   600.000   -2.728E+01    4.7898336E+06   -6.4081317E+03    1.5159801E-02    4.8212967E+06   -3.4390390E-02    4.8411071E+06
   -0.63   600.000   -2.774E+01    4.8345503E+06   -7.5085437E+03    1.4676155E-02    4.8701493E+06   -3.3430290E-02    4.8877373E+06
   -0.62   600.000   -2.820E+01    4.8744153E+06   -8.4740360E+03    1.4223403E-02    4.9142613E+06   -3.2291058E-02    4.9297465E+06
   -0.61   600.000   -2.866E+01    4.9101010E+06   -9.2834795E+03    1.3824907E-02    4.9542179E+06   -3.0938596E-02    4.9677751E+06
   -0.60   600.000   -2.913E+01    4.9423238E+06   -9.9225365E+03    1.3508077E-02    4.9906097E+06   -2.9324337E-02    5.0024776E+06
   -0.59   600.000   -2.959E+01    4.9717398E+06   -1.0383427E+04    1.3300386E-02    5.0239394E+06   -2.7392187E-02    5.0344247E+06
   -0.58   600.000   -3.006E+01    4.9988653E+06   -1.0664444E+04    1.3223790E-02    5.0545568E+06   -2.5087503E-02    5.0640331E+06
   -0.57   600.000   -3.053E+01    5.0240348E+06   -1.0769655E+04    1.3288282E-02    5.0826358E+06   -2.2366804E-02    5.0915335E+06
   -0.56   600.000   -3.100E+01    5.0474007E+06   -1.0708898E+04    1.3485863E-02    5.1081907E+06   -1.9206935E-02    5.1169776E+06
   -0.55   600.000   -3.147E+01    5.0689693E+06   -1.0497794E+04    1.3786498E-02    5.1311261E+06   -1.5612752E-02    5.1402788E+06
   -0.54   600.000   -3.195E+01    5.0886589E+06   -1.0157414E+04    1.4137453E-02    5.1513046E+06   -1.1622613E-02    5.1612738E+06
   -0.53   600.000   -3.242E+01    5.1063662E+06   -9.7133370E+03    1.4466757E-02    5.1686159E+06   -7.3110324E-03    5.1797905E+06
   -0.52   600.000   -3.289E+01    5.1220250E+06   -9.1941335E+03    1.4690481E-02    5.1830339E+06   -2.7878184E-03    5.1957081E+06
   -0.51   600.000   -3.336E+01    5.1356448E+06   -8.6296406E+03    1.4722573E-02    5.1946493E+06    1.8068956E-03    5.2090008E+06
   -0.50   600.000   -3.384E+01    5.1473259E+06   -8.0494994E+03    1.4485404E-02    5.2036753E+06    6.3118306E-03    5.2197562E+06
   -0.49   600.000   -3.431E+01    5.1572496E+06   -7.4823382E+03    1.3919148E-02    5.2104285E+06    1.0557189E-02    5.2281716E+06
   -0.48   600.000   -3.478E+01    5.1656530E+06   -6.9556799E+03    1.2988558E-02    5.2152906E+06    1.4379013E-02    5.2345309E+06
   -0.47   600.000   -3.525E+01    5.1727948E+06   -6.4962913E+03    1.1686289E-02    5.2186626E+06    1.7632993E-02    5.2391700E+06
   -0.46   600.000   -3.572E+01    5.1789190E+06   -6.1304059E+03    1.0032548E-02    5.2209171E+06    2.0205535E-02    5.2424362E+06
   -0.45   600.000   -3.618E+01    5.1842188E+06   -5.8831207E+03    8.0713172E-03    5.2223545E+06    2.2020730E-02    5.2446461E+06
   -0.44   600.000   -3.665E+01    5.1888019E+06   -5.7763638E+03    5.8638843E-03    5.2231624E+06    2.3042978E-02    5.2460425E+06
   -0.43   600.000   -3.711E+01    5.1926586E+06   -5.8251973E+03    3.4808264E-03    5.2233840E+06    2.3275999E-02    5.2467551E+06
   -0.42   600.000   -3.757E+01    5.1956411E+06   -6.0328291E+03    9.9387599E-04    5.2228990E+06    2.2759408E-02    5.2467711E+06
   -0.41   600.000   -3.803E+01    5.1974639E+06   -6.3854238E+03   -1.5308727E-03    5.2214290E+06    2.1563803E-02    5.2459279E+06
   -0.40   600.000   -3.848E+01    5.1977365E+06   -6.8483608E+03   -4.0373136E-03    5.2185748E+06    1.9784809E-02    5.2439372E+06
   -0.39   600.000   -3.894E+01    5.1960324E+06   -7.3656699E+03   -6.4807948E-03    5.2138907E+06    1.7535967E-02    5.2404465E+06
   -0.38   600.000   -3.938E+01    5.1919876E+06   -7.8638044E+03   -8.8270401E-03    5.2069876E+06    1.4940261E-02    5.2351316E+06
   -0.37   600.000   -3.983E+01    5.1854095E+06   -8.2597608E+03   -1.1049510E-02    5.1976470E+06    1.2120430E-02    5.2278027E+06
   -0.36   600.000   -4.027E+01    5.1763690E+06   -8.4722290E+03   -1.3126486E-02    5.1859188E+06    9.1889060E-03    5.2184986E+06
   -0.35   600.000   -4.071E+01    5.1652498E+06   -8.4334768E+03   -1.5039035E-02    5.1721772E+06    6.2388718E-03    5.2075426E+06
   -0.34   600.000   -4.114E+01    5.1527369E+06   -8.0994431E+03   -1.6770495E-02    5.1571134E+06    3.3381214E-03    5.1955393E+06
   -0.33   600.000   -4.157E+01    5.1397417E+06   -7.4560607E+03   -1.8307482E-02    5.1416651E+06    5.2689539E-04    5.1833109E+06
   -0.32   600.000   -4.200E+01    5.1272778E+06   -6.5208436E+03   -1.9641819E-02    5.1268922E+06   -2.1801551E-03    5.1717824E+06
   -0.31   600.000   -4.242E+01    5.1163153E+06   -5.3398128E+03   -2.0772536E-02    5.1138281E+06   -4.7889054E-03    5.1618430E+06
   -0.30   600.000   -4.284E+01    5.1076441E+06   -3.9806017E+03   -2.1707185E-02    5.1033352E+06   -7.3194030E-03    5.1542125E+06
   -0.29   600.000   -4.326E+01    5.1017731E+06   -2.5230515E+03   -2.2462034E-02    5.0959951E+06   -9.8000696E-03    5.1493411E+06
   -0.28   600.000   -4.368E+01    5.0988827E+06   -1.0488723E+03   -2.3061144E-02    5.0920494E+06   -1.2263605E-02    5.1473598E+06
   -0.27   600.000   -4.410E+01    5.0988335E+06    3.6793199E+02   -2.3534612E-02    5.0913993E+06   -1.4744663E-02    5.1480869E+06
   -0.26   600.000   -4.451E+01    5.1012202E+06    1.6682857E+03   -2.3916349E-02    5.0936520E+06   -1.7278413E-02    5.1510788E+06
   -0.25   600.000   -4.492E+01    5.1054508E+06    2.8117938E+03   -2.4241688E-02    5.0981977E+06   -1.9898773E-02    5.1557086E+06
   -0.24   600.000   -4.534E+01    5.1108245E+06    3.7767488E+03   -2.4545074E-02    5.1042912E+06   -2.2635400E-02    5.1612449E+06
   -0.23   600.000   -4.575E+01    5.1165886E+06    4.5570802E+03   -2.4858044E-02    5.1111163E+06   -2.5509360E-02    5.1669120E+06
   -0.22   600.000   -4.617E+01    5.1219614E+06    5.1576454E+03   -2.5207769E-02    5.1178183E+06   -2.8528165E-02    5.1719175E+06
   -0.21   600.000   -4.659E+01    5.1261233E+06    5.5894086E+03   -2.5616397E-02    5.1235065E+06   -3.1681320E-02    5.1754475E+06
   -0.20   600.000   -4.701E+01    5.1281928E+06    5.8656193E+03   -2.6101157E-02    5.1272375E+06   -3.4937485E-02    5.1766454E+06
   -0.19   600.000   -4.744E+01    5.1272084E+06    5.9993822E+03   -2.6674816E-02    5.1280012E+06   -3.8243996E-02    5.1745929E+06
   -0.18   600.000   -4.787E+01    5.1221411E+06    6.0024083E+03   -2.7345759E-02    5.1247329E+06   -4.1529037E-02    5.1683181E+06
   -0.17   600.000   -4.830E+01    5.1119493E+06    5.8845399E+03   -2.8116995E-02    5.1163654E+06   -4.4706386E-02    5.1568438E+06
   -0.16   600.000   -4.874E+01    5.0956778E+06    5.6538178E+03   -2.8983758E-02    5.1019234E+06   -4.7682327E-02    5.1392783E+06
   -0.15   600.000   -4.918E+01    5.0725846E+06    5.3171635E+03   -2.9930084E-02    5.0806465E+06   -5.0363966E-02    5.1149351E+06
   -0.14   600.000   -4.963E+01    5.0422722E+06    4.8818743E+03   -3.0925352E-02    5.0521178E+06   -5.2667894E-02    5.0834579E+06
   -0.13   600.000   -5.009E+01    5.0047937E+06    4.3579580E+03   -3.1922049E-02    5.0163698E+06   -5.4527880E-02    5.0449246E+06
   -0.12   600.000   -5.055E+01    4.9607130E+06    3.7609503E+03   -3.2855860E-02    4.9739454E+06   -5.5900232E-02    4.9999069E+06
   -0.11   600.000   -5.102E+01    4.9111081E+06    3.1144915E+03   -3.3648510E-02    4.9259025E+06   -5.6765707E-02    4.9494767E+06
   -0.10   600.000   -5.150E+01    4.8575207E+06    2.4518019E+03   -3.4213083E-02    4.8737645E+06   -5.7127414E-02    4.8951601E+06
   -0.09   600.000   -5.199E+01    4.8018617E+06    1.8153620E+03   -3.4460876E-02    4.8194262E+06   -5.7004959E-02    4.8388471E+06
   -0.08   600.000   -5.248E+01    4.7462871E+06    1.2545118E+03   -3.4308607E-02    4.7650291E+06   -5.6425914E-02    4.7826715E+06
   -0.07   600.000   -5.299E+01    4.6930547E+06    8.2120314E+02   -3.3684926E-02    4.7128174E+06   -5.5416445E-02    4.7288691E+06
   -0.06   600.000   -5.351E+01    4.6443717E+06    5.6459350E+02   -3.2535590E-02    4.6649855E+06   -5.3993175E-02    4.6796244E+06
   -0.05   600.000   -5.403E+01    4.6022408E+06    5.2545214E+02   -3.0827157E-02    4.6235238E+06   -5.2158181E-02    4.6369152E+06
   -0.04   600.000   -5.457E+01    4.5683171E+06    7.3137198E+02   -2.8549428E-02    4.5900760E+06   -4.9898415E-02    4.6023671E+06
   -0.03   600.000   -5.512E+01    4.5437881E+06    1.1935509E+03   -2.5716921E-02    4.5658199E+06   -4.7189907E-02    4.5771324E+06
   -0.02   600.000   -5.568E+01    4.5292879E+06    1.9055140E+03   -2.2369526E-02    4.5513821E+06   -4.4006158E-02    4.5618058E+06
   -0.01   600.000   -5.625E+01    4.5248544E+06    2.8437358E+03   -1.8572170E-02    4.5467968E+06   -4.0329217E-02    4.5563833E+06
    0.00   600.000   -5.683E+01    4.5299307E+06    3.9698248E+03   -1.4413167E-02    4.5515072E+06   -3.6161325E-02    4.5602682E+06
    0.01   600.000   -5.741E+01    4.5434070E+06    5.2338242E+03   -1.0001021E-02    4.5644088E+06   -3.1534795E-02    4.5723176E+06
    0.02   600.000   -5.801E+01    4.5637000E+06    6.5782231E+03   -5.4598504E-03    4.5839294E+06   -2.6518086E-02    4.5909260E+06
    0.03   600.000   -5.861E+01    4.5888602E+06    7.9423578E+03   -9.2401991E-04    4.6081371E+06   -2.1216831E-02    4.6141366E+06
    0.04   600.000   -5.922E+01    4.6167036E+06    9.2669009E+03    3.4671395E-03    4.6348726E+06   -1.5769524E-02    4.6397755E+06
    0.05   600.000   -5.984E+01    4.6449604E+06    1.0498038E+04    7.5737885E-03    4.6618979E+06   -1.0338570E-02    4.6656006E+06
    0.06   600.000   -6.046E+01    4.6714355E+06    1.1590805E+04    1.1259018E-02    4.6870555E+06   -5.0980442E-03    4.6894610E+06
    0.07   600.000   -6.108E+01    4.6941742E+06    1.2511031E+04    1.4391780E-02    4.7084334E+06   -2.1987207E-04    4.7094591E+06
    0.08   600.000   -6.171E+01    4.7116231E+06    1.3235562E+04    1.6850378E-02    4.7245237E+06    4.1398499E-03    4.7241063E+06
    0.09   600.000   -6.234E+01    4.7227735E+06    1.3750864E+04    1.8527578E-02    4.7343636E+06    7.8528097E-03    4.7324604E+06
    0.10   600.000   -6.298E+01    4.7272671E+06    1.4050638E+04    1.9337876E-02    4.7376398E+06    1.0827430E-02    4.7342250E+06
    0.11   600.000   -6.361E+01    4.7254476E+06    1.4133380E+04    1.9226412E-02    4.7347378E+06    1.3013940E-02    4.7297949E+06
    0.12   600.000   -6.426E+01    4.7183388E+06    1.4000781E+04    1.8178046E-02    4.7267191E+06    1.4405225E-02    4.7202320E+06
    0.13   600.000   -6.490E+01    4.7075448E+06    1.3657388E+04    1.6224444E-02    4.7152188E+06    1.5033787E-02    4.7071641E+06
    0.14   600.000   -6.555E+01    4.6950790E+06    1.3111304E+04    1.3447023E-02    4.7022736E+06    1.4965686E-02    4.6926166E+06
    0.15   600.000   -6.621E+01    4.6831475E+06    1.2375159E+04    9.9741781E-03    4.6901037E+06    1.4292756E-02    4.6788008E+06
    0.16   600.000   -6.687E+01    4.6739223E+06    1.1466432E+04    5.9723414E-03    4.6808858E+06    1.3124309E-02    4.6678934E+06
    0.17   600.000   -6.754E+01    4.6693428E+06    1.0406626E+04    1.6317141E-03    4.6765574E+06    1.1579226E-02    4.6618448E+06
    0.18   600.000   -6.822E+01    4.6709747E+06    9.2194890E+03   -2.8511854E-03    4.6786782E+06    9.7787980E-03    4.6622423E+06
    0.19   600.000   -6.890E+01    4.6799357E+06    7.9291608E+03   -7.2910636E-03    4.6883614E+06    7.8403889E-03    4.6702385E+06
    0.20   600.000   -6.960E+01    4.6968787E+06    6.5593426E+03   -1.1528053E-02    4.7062615E+06    5.8720216E-03    4.6865341E+06
    0.21   600.000   -7.030E+01    4.7220123E+06    5.1341366E+03   -1.5435686E-02    4.7325969E+06    3.9682232E-03    4.7113926E+06
    0.22   600.000   -7.100E+01    4.7551316E+06    3.6803081E+03   -1.8921208E-02    4.7671795E+06    2.2076795E-03    4.7446629E+06
    0.23   600.000   -7.172E+01    4.7956419E+06    2.2297891E+03   -2.1918918E-02    4.8094332E+06    6.5311810E-04    4.7857931E+06
    0.24   600.000   -7.244E+01    4.8425752E+06    8.2080694E+02   -2.4379326E-02    4.8584019E+06   -6.4663322E-04    4.8338352E+06
    0.25   600.000   -7.317E+01    4.8946087E+06   -5.0366919E+02   -2.6258283E-02    4.9127575E+06   -1.6531038E-03    4.8874557E+06
    0.26   600.000   -7.391E+01    4.9501065E+06   -1.7005011E+03   -2.7510190E-02    4.9708338E+06   -2.3343390E-03    4.9449742E+06
    0.27   600.000   -7.465E+01    5.0072039E+06   -2.7331074E+03   -2.8087948E-02    5.0307050E+06   -2.6620744E-03    5.0044495E+06
    0.28   600.000   -7.539E+01    5.0639378E+06   -3.5785487E+03   -2.7949844E-02    5.0903175E+06   -2.6109111E-03    5.0638215E+06
    0.29   600.000   -7.615E+01    5.1184151E+06   -4.2329037E+03   -2.7071159E-02    5.1476644E+06   -2.1597758E-03    5.1210941E+06
    0.30   600.000   -7.690E+01    5.1689906E+06   -4.7133338E+03   -2.5456601E-02    5.2009756E+06   -1.2950767E-03    5.1745322E+06
    0.31   600.000   -7.766E+01    5.2144216E+06   -5.0562213E+03   -2.3149349E-02    5.2488861E+06   -1.4214283E-05    5.2228306E+06
    0.32   600.000   -7.843E+01    5.2539669E+06   -5.3119161E+03   -2.0233481E-02    5.2905494E+06    1.6722334E-03    5.2652227E+06
    0.33   600.000   -7.920E+01    5.2874167E+06   -5.5375150E+03   -1.6828398E-02    5.3256778E+06    3.7410688E-03    5.3015093E+06
    0.34   600.000   -7.997E+01    5.3150537E+06   -5.7894638E+03   -1.3076003E-02    5.3545084E+06    6.1603664E-03    5.3320082E+06
    0.35   600.000   -8.075E+01    5.3375616E+06   -6.1175043E+03   -9.1233173E-03    5.3777101E+06    8.8961586E-03    5.3574450E+06
    0.36   600.000   -8.153E+01    5.3559033E+06   -6.5607383E+03   -5.1043129E-03    5.3962555E+06    1.1920324E-02    5.3788106E+06
    0.37   600.000   -8.231E+01    5.3711895E+06   -7.1456721E+03   -1.1249882E-03    5.4112788E+06    1.5217465E-02    5.3972102E+06
    0.38   600.000   -8.309E+01    5.3845492E+06   -7.8854553E+03    2.7450888E-03    5.4239366E+06    1.8788504E-02    5.4137237E+06
    0.39   600.000   -8.388E+01    5.3970116E+06   -8.7793990E+03    6.4730897E-03    5.4352821E+06    2.2649274E-02    5.4292836E+06
    0.40   600.000   -8.468E+01    5.4094052E+06   -9.8122650E+03    1.0055316E-02    5.4461600E+06    2.6823342E-02    5.4445797E+06
    0.41   600.000   -8.548E+01    5.4222793E+06   -1.0953475E+04    1.3503698E-02    5.4571301E+06    3.1329590E-02    5.4599938E+06
    0.42   600.000   -8.628E+01    5.4358595E+06   -1.2156914E+04    1.6829664E-02    5.4684277E+06    3.6166419E-02    5.4755709E+06
    0.43   600.000   -8.709E+01    5.4500406E+06   -1.3362098E+04    2.0029112E-02    5.4799643E+06    4.1295617E-02    5.4910317E+06
    0.44   600.000   -8.791E+01    5.4644220E+06   -1.4497141E+04    2.3071747E-02    5.4913707E+06    4.6629519E-02    5.5058264E+06
    0.45   600.000   -8.873E+01    5.4783752E+06   -1.5483407E+04    2.5896958E-02    5.5020694E+06    5.2024917E-02    5.5192197E+06
    0.46   600.000   -8.956E+01    5.4911305E+06   -1.6241308E+04    2.8416874E-02    5.5113624E+06    5.7286037E-02    5.5303895E+06
    0.47   600.000   -9.040E+01    5.5018606E+06   -1.6696644E+04    3.0525721E-02    5.5185110E+06    6.2177032E-02    5.5385175E+06
    0.48   600.000   -9.125E+01    5.5097444E+06   -1.6787070E+04    3.2113468E-02    5.5227927E+06    6.6442287E-02    5.5428526E+06
    0.49   600.000   -9.211E+01    5.5140027E+06   -1.6468518E+04    3.3081191E-02    5.5235278E+06    6.9831103E-02    5.5427389E+06
    0.50   600.000   -9.298E+01    5.5139059E+06   -1.5721323E+04    3.3355675E-02    5.5200790E+06    7.2122483E-02    5.5376124E+06
    0.51   600.000   -9.385E+01    5.5087672E+06   -1.4555412E+04    3.2901293E-02    5.5118371E+06    7.3146069E-02    5.5269779E+06
    0.52   600.000   -9.473E+01    5.4979322E+06   -1.3013296E+04    3.1727791E-02    5.4982055E+06    7.2796559E-02    5.5103836E+06
    0.53   600.000   -9.563E+01    5.4807784E+06   -1.1169374E+04    2.9893206E-02    5.4785973E+06    7.1040631E-02    5.4874055E+06
    0.54   600.000   -9.652E+01    5.4567315E+06   -9.1244298E+03    2.7501443E-02    5.4524506E+06    6.7916947E-02    5.4576523E+06
    0.55   600.000   -9.743E+01    5.4253009E+06   -6.9953144E+03    2.4694387E-02    5.4192660E+06    6.3530838E-02    5.4207917E+06
    0.56   600.000   -9.834E+01    5.3861327E+06   -4.9012124E+03    2.1638838E-02    5.3786645E+06    5.8045494E-02    5.3765992E+06
    0.57   600.000   -9.925E+01    5.3390731E+06   -2.9490437E+03    1.8509118E-02    5.3304567E+06    5.1671138E-02    5.3250197E+06
    0.58   600.000   -1.002E+02    5.2842282E+06   -1.2209732E+03    1.5466964E-02    5.2747083E+06    4.4652960E-02    5.2662274E+06
    0.59   600.000   -1.011E+02    5.2219984E+06    2.3347000E+02    1.2641027E-02    5.2117816E+06    3.7258000E-02    5.2006638E+06
    0.60   600.000   -1.020E+02    5.1530713E+06    1.3993261E+03    1.0108925E-02    5.1423312E+06    2.9760971E-02    5.1290322E+06
    0.61   600.000   -1.029E+02    5.0783571E+06    2.2923115E+03    7.8849837E-03    5.0672419E+06    2.2429298E-02    5.0522367E+06
    0.62   600.000   -1.038E+02    4.9988741E+06    2.9505402E+03    5.9164623E-03    4.9875132E+06    1.5508201E-02    4.9712702E+06
    0.63   600.000   -1.047E+02    4.9156037E+06    3.4241232E+03    4.0900289E-03    4.9041121E+06    9.2071480E-03    4.8870728E+06
    0.64   600.000   -1.056E+02    4.8293509E+06    3.7650370E+03    2.2486547E-03    4.8178303E+06    3.6890987E-03    4.8003962E+06
    0.65   600.000   -1.065E+02    4.7406466E+06    4.0191315E+03    2.1712390E-04    4.7291833E+06   -9.3632097E-04    4.7117101E+06
    0.66   600.000   -1.074E+02    4.6497185E+06    4.2212239E+03   -2.1675327E-03    4.6383772E+06   -4.6152483E-03    4.6211759E+06
    0.67   600.000   -1.083E+02    4.5565346E+06    4.3932821E+03   -5.0257277E-03    4.5453511E+06   -7.3478424E-03    4.5286932E+06
    0.68   600.000   -1.092E+02    4.4609057E+06    4.5450549E+03   -8.4105445E-03    4.4498796E+06   -9.1831531E-03    4.4340024E+06
    0.69   600.000   -1.100E+02    4.3626152E+06    4.6762880E+03   -1.2293071E-02    4.3517045E+06   -1.0211580E-02    4.3368148E+06
    0.70   600.000   -1.108E+02    4.2615421E+06    4.7797702E+03   -1.6560454E-02    4.2506636E+06   -1.0555751E-02    4.2369352E+06
    0.71   600.000   -1.117E+02    4.1577502E+06    4.8446618E+03   -2.1026710E-02    4.1467867E+06   -1.0360278E-02    4.1343533E+06
    0.72   600.000   -1.125E+02    4.0515337E+06    4.8597059E+03   -2.5453793E-02    4.0403502E+06   -9.7805832E-03    4.0292919E+06
    0.73   600.000   -1.132E+02    3.9434225E+06    4.8159581E+03   -2.9578744E-02    3.9318876E+06   -8.9710259E-03    3.9222161E+06
    0.74   600.000   -1.140E+02    3.8341598E+06    4.7086854E+03   -3.3142150E-02    3.8221713E+06   -8.0730733E-03    3.8138154E+06
    0.75   600.000   -1.148E+02    3.7246678E+06    4.5381704E+03   -3.5913780E-02    3.7121765E+06   -7.2048839E-03    3.7049722E+06
    0.76   600.000   -1.155E+02    3.6160112E+06    4.3093558E+03   -3.7712528E-02    3.6030385E+06   -6.4540559E-03    3.5967266E+06
    0.77   600.000   -1.162E+02    3.5093626E+06    4.0305186E+03   -3.8419255E-02    3.4960087E+06   -5.8749641E-03    3.4902417E+06
    0.78   600.000   -1.169E+02    3.4059682E+06    3.7113743E+03   -3.7982275E-02    3.3924092E+06   -5.4910688E-03    3.3867682E+06
    0.79   600.000   -1.175E+02    3.3071110E+06    3.3610773E+03   -3.6416003E-02    3.2935857E+06   -5.3012061E-03    3.2876052E+06
    0.80   600.000   -1.182E+02    3.2140690E+06    2.9864939E+03   -3.3793713E-02    3.2008583E+06   -5.2877850E-03    3.1940576E+06
    0.81   600.000   -1.188E+02    3.1280705E+06    2.5909543E+03   -3.0235748E-02    3.1154729E+06   -5.4245142E-03    3.1073899E+06
    0.82   600.000   -1.194E+02    3.0502505E+06    2.1735639E+03   -2.5894829E-02    3.0385557E+06   -5.6818379E-03    3.0287817E+06
    0.83   600.000   -1.200E+02    2.9816117E+06    1.7291439E+03   -2.0940426E-02    2.9710764E+06   -6.0293576E-03    2.9592865E+06
    0.84   600.000   -1.205E+02    2.9229967E+06    1.2489232E+03   -1.5544208E-02    2.9138226E+06   -6.4356451E-03    2.8998004E+06
    0.85   600.000   -1.210E+02    2.8750707E+06    7.2210240E+02   -9.8683365E-03    2.8673876E+06   -6.8666236E-03    2.8510397E+06
    0.86   600.000   -1.216E+02    2.8383140E+06    1.3824848E+02   -4.0577615E-03    2.8321682E+06   -7.2839575E-03    2.8135277E+06
    0.87   600.000   -1.221E+02    2.8130173E+06   -5.0978806E+02    1.7631137E-03    2.8083666E+06   -7.6447319E-03    2.7875841E+06
    0.88   600.000   -1.226E+02    2.7992719E+06   -1.2229748E+03    7.4898744E-03    2.7959867E+06   -7.9032587E-03    2.7733113E+06
    0.89   600.000   -1.230E+02    2.7969448E+06   -1.9937966E+03    1.3034764E-02    2.7948166E+06   -8.0152462E-03    2.7705684E+06
    0.90   600.000   -1.235E+02    2.8056387E+06   -2.8049605E+03    1.8322058E-02    2.8043921E+06   -7.9438971E-03    2.7789320E+06
    0.91   600.000   -1.240E+02    2.8246399E+06   -3.6292568E+03    2.3283610E-02    2.8239488E+06   -7.6668635E-03    2.7976485E+06
    0.92   600.000   -1.244E+02    2.8528714E+06   -4.4305463E+03    2.7855741E-02    2.8523751E+06   -7.1825328E-03    2.8255937E+06
    0.93   600.000   -1.249E+02    2.8888712E+06   -5.1658215E+03    3.1978119E-02    2.8881893E+06   -6.5139949E-03    2.8612567E+06
    0.94   600.000   -1.253E+02    2.9308142E+06   -5.7883317E+03    3.5594699E-02    2.9295603E+06   -5.7093397E-03    2.9027685E+06
    0.95   600.000   -1.258E+02    2.9765907E+06   -6.2517320E+03    3.8656275E-02    2.9743826E+06   -4.8376087E-03    2.9479844E+06
    0.96   600.000   -1.262E+02    3.0239365E+06   -6.5149974E+03    4.1123827E-02    3.0204062E+06   -3.9806379E-03    2.9946168E+06
    0.97   600.000   -1.267E+02    3.0706004E+06   -6.5474883E+03    4.2971716E-02    3.0654037E+06   -3.2219673E-03    3.0404033E+06
    0.98   600.000   -1.271E+02    3.1145226E+06   -6.3332438E+03    4.4189881E-02    3.1073511E+06   -2.6347474E-03    3.0832844E+06
    0.99   600.000   -1.276E+02    3.1539948E+06   -5.8735183E+03    4.4784554E-02    3.1445908E+06   -2.2709394E-03    3.1215629E+06
    1.00   600.000   -1.281E+02    3.1877795E+06   -5.1868589E+03    4.4777401E-02    3.1759540E+06   -2.1539515E-03    3.1540213E+06
    1.01   600.000   -1.285E+02    3.2151753E+06   -4.3065873E+03    4.4203429E-02    3.2008259E+06   -2.2761492E-03    3.1799856E+06
    1.02   600.000   -1.290E+02    3.2360279E+06   -3.2761808E+03    4.3108186E-02    3.2191549E+06   -2.6015696E-03    3.1993348E+06
    1.03   600.000   -1.295E+02    3.2506947E+06   -2.1435249E+03    4.1544799E-02    3.2314105E+06   -3.0729736E-03    3.2124635E+06
    1.04   600.000   -1.299E+02    3.2599747E+06   -9.5520131E+02    3.9571234E-02    3.2385046E+06   -3.6214677E-03    3.2202100E+06
    1.05   600.000   -1.304E+02    3.2650158E+06    2.4812888E+02    3.7247981E-02    3.2416881E+06   -4.1766009E-03    3.2237616E+06
    1.06   600.000   -1.309E+02    3.2672054E+06    1.4344981E+03    3.4636277E-02    3.2424332E+06   -4.6751381E-03    3.2245452E+06
    1.07   600.000   -1.314E+02    3.2680517E+06    2.5812278E+03    3.1796900E-02    3.2423089E+06   -5.0674022E-03    3.2241095E+06
    1.08   600.000   -1.319E+02    3.2690590E+06    3.6734411E+03    2.8789565E-02    3.2428542E+06   -5.3208431E-03    3.2240023E+06
    1.09   600.000   -1.324E+02    3.2716023E+06    4.7009851E+03    2.5672849E-02    3.2454551E+06   -5.4210142E-03    3.2256485E+06
    1.10   600.000   -1.329E+02    3.2768106E+06    5.6545707E+03    2.2504452E-02    3.2512315E+06   -5.3703492E-03    3.2302343E+06
    1.11   600.000   -1.334E+02    3.2854666E+06    6.5221544E+03    1.9341478E-02    3.2609404E+06   -5.1851262E-03    3.2386059E+06
    1.12   600.000   -1.339E+02    3.2979344E+06    7.2866297E+03    1.6240384E-02    3.2749071E+06   -4.8910094E-03    3.2511924E+06
    1.13   600.000   -1.345E+02    3.3141261E+06    7.9257226E+03    1.3256385E-02    3.2929919E+06   -4.5177042E-03    3.2679634E+06
    1.14   600.000   -1.350E+02    3.3335119E+06    8.4145248E+03    1.0442298E-02    3.3145998E+06   -4.0935487E-03    3.2884280E+06
    1.15   600.000   -1.356E+02    3.3551749E+06    8.7303622E+03    7.8470865E-03    3.3387344E+06   -3.6411046E-03    3.3116780E+06
    1.16   600.000   -1.362E+02    3.3779035E+06    8.8588434E+03    5.5144028E-03    3.3640907E+06   -3.1747831E-03    3.3364723E+06
    1.17   600.000   -1.368E+02    3.4003079E+06    8.7992543E+03    3.4813530E-03    3.3891752E+06   -2.7011055E-03    3.3613514E+06
    1.18   600.000   -1.374E+02    3.4209463E+06    8.5673635E+03    1.7774641E-03    3.4124373E+06   -2.2214275E-03    3.3847685E+06
    1.19   600.000   -1.380E+02    3.4384439E+06    8.1943701E+03    4.2364700E-04    3.4323957E+06   -1.7361350E-03    3.4052217E+06
    1.20   600.000   -1.387E+02    3.4515950E+06    7.7220393E+03   -5.6904052E-04    3.4477490E+06   -1.2488147E-03    3.4213728E+06
    1.21   600.000   -1.393E+02    3.4594382E+06    7.1954711E+03   -1.2007770E-03    3.4574594E+06   -7.6898386E-04    3.4321406E+06
    1.22   600.000   -1.400E+02    3.4613019E+06    6.6557960E+03   -1.4840951E-03    3.4608047E+06   -3.1261836E-04    3.4367596E+06
    1.23   600.000   -1.407E+02    3.4568159E+06    6.1349701E+03   -1.4440659E-03    3.4573950E+06    9.9336875E-05    3.4347985E+06
    1.24   600.000   -1.415E+02    3.4458913E+06    5.6538530E+03   -1.1169193E-03    3.4471549E+06    4.4352068E-04    3.4261406E+06
    1.25   600.000   -1.423E+02    3.4286755E+06    5.2234226E+03   -5.4684129E-04    3.4302761E+06    6.9657959E-04    3.4109311E+06
    1.26   600.000   -1.430E+02    3.4054907E+06    4.8479419E+03    2.1871640E-04    3.4071509E+06    8.3667830E-04    3.3895076E+06
    1.27   600.000   -1.439E+02    3.3767735E+06    4.5285270E+03    1.1342738E-03    3.3783013E+06    8.4413144E-04    3.3623294E+06
    1.28   600.000   -1.447E+02    3.3430228E+06    4.2658570E+03    2.1608075E-03    3.3443161E+06    7.0197379E-04    3.3299190E+06
    1.29   600.000   -1.456E+02    3.3047665E+06    4.0614137E+03    3.2682352E-03    3.3058048E+06    3.9758852E-04    3.2928243E+06
    1.30   600.000   -1.465E+02    3.2625426E+06    3.9173027E+03    4.4351782E-03    3.2633693E+06   -7.3872659E-05    3.2515989E+06
    1.31   600.000   -1.475E+02    3.2168898E+06    3.8351530E+03    5.6461340E-03    3.2175887E+06   -7.0448673E-04    3.2067948E+06
    1.32   600.000   -1.485E+02    3.1683423E+06    3.8147771E+03    6.8870800E-03    3.1690128E+06   -1.4682761E-03    3.1589588E+06
    1.33   600.000   -1.495E+02    3.1174236E+06    3.8532105E+03    8.1410769E-03    3.1181579E+06   -2.3176975E-03    3.1086284E+06
    1.34   600.000   -1.506E+02    3.0646412E+06    3.9445060E+03    9.3853988E-03    3.0655065E+06   -3.1840022E-03    3.0563271E+06
    1.35   600.000   -1.517E+02    3.0104866E+06    4.0803188E+03    1.0591106E-02    3.0115127E+06   -3.9828045E-03    3.0025624E+06
    1.36   600.000   -1.528E+02    2.9554457E+06    4.2509833E+03    1.1725082E-02    2.9566170E+06   -4.6248084E-03    2.9478337E+06
    1.37   600.000   -1.540E+02    2.9000216E+06    4.4465859E+03    1.2753793E-02    2.9012740E+06   -5.0300327E-03    2.8926517E+06
    1.38   600.000   -1.553E+02    2.8447667E+06    4.6575444E+03    1.3647729E-02    2.8459891E+06   -5.1425426E-03    2.8375697E+06
    1.39   600.000   -1.565E+02    2.7903162E+06    4.8744298E+03    1.4385611E-02    2.7913564E+06   -4.9421327E-03    2.7832155E+06
    1.40   600.000   -1.578E+02    2.7374087E+06    5.0871115E+03    1.4957826E-02    2.7380839E+06   -4.4498880E-03    2.7303146E+06
    1.41   600.000   -1.591E+02    2.6868839E+06    5.2836331E+03    1.5368829E-02    2.6869956E+06   -3.7260428E-03    2.6796899E+06
    1.42   600.000   -1.604E+02    2.6396503E+06    5.4494003E+03    1.5638341E-02    2.6390012E+06   -2.8606241E-03    2.6322325E+06
    1.43   600.000   -1.618E+02    2.5966256E+06    5.5672065E+03    1.5801020E-02    2.5950377E+06   -1.9593191E-03    2.5888458E+06
    1.44   600.000   -1.631E+02    2.5586611E+06    5.6183570E+03    1.5904255E-02    2.5559915E+06   -1.1281524E-03    2.5503729E+06
    1.45   600.000   -1.645E+02    2.5264647E+06    5.5847799E+03    1.6003899E-02    2.5226185E+06   -4.6052008E-04    2.5175232E+06
    1.46   600.000   -1.658E+02    2.5005386E+06    5.4516860E+03    1.6158152E-02    2.4954765E+06   -2.8998986E-05    2.4908118E+06
    1.47   600.000   -1.671E+02    2.4811398E+06    5.2101698E+03    1.6420395E-02    2.4748814E+06    1.1733534E-04    2.4705213E+06
    1.48   600.000   -1.684E+02    2.4682671E+06    4.8591682E+03    1.6832187E-02    2.4608903E+06   -4.9076052E-05    2.4566889E+06
    1.49   600.000   -1.696E+02    2.4616733E+06    4.4063689E+03    1.7417730E-02    2.4533106E+06   -5.3913847E-04    2.4491155E+06
    1.50   600.000   -1.709E+02    2.4608975E+06    3.8678951E+03    1.8180863E-02    2.4517297E+06   -1.3528725E-03    2.4473924E+06
    1.51   600.000   -1.721E+02    2.4653133E+06    3.2668404E+03    1.9105080E-02    2.4555607E+06   -2.4844910E-03    2.4509425E+06
    1.52   600.000   -1.732E+02    2.4741901E+06    2.6309507E+03    2.0156395E-02    2.4641002E+06   -3.9257602E-03    2.4590734E+06
    1.53   600.000   -1.743E+02    2.4867633E+06    1.9899256E+03    2.1288381E-02    2.4765953E+06   -5.6671332E-03    2.4710408E+06
    1.54   600.000   -1.754E+02    2.5023065E+06    1.3729017E+03    2.2448330E-02    2.4923118E+06   -7.6965364E-03    2.4861185E+06
    1.55   600.000   -1.765E+02    2.5201962E+06    8.0662790E+02    2.3583393E-02    2.5105971E+06   -9.9960602E-03    2.5036631E+06
    1.56   600.000   -1.775E+02    2.5399539E+06    3.1462215E+02    2.4645611E-02    2.5309235E+06   -1.2537233E-02    2.5231623E+06
    1.57   600.000   -1.785E+02    2.5612568E+06   -8.2742263E+01    2.5595024E-02    2.5529032E+06   -1.5275978E-02    2.5442547E+06
    1.58   600.000   -1.794E+02    2.5839113E+06   -3.6763594E+02    2.6400549E-02    2.5762702E+06   -1.8148627E-02    2.5667128E+06
    1.59   600.000   -1.803E+02    2.6077990E+06   -5.2432127E+02    2.7038970E-02    2.6008372E+06   -2.1070311E-02    2.5903968E+06
    1.60   600.000   -1.812E+02    2.6328095E+06   -5.3952575E+02    2.7492995E-02    2.6264381E+06   -2.3936728E-02    2.6151926E+06
    1.61   600.000   -1.821E+02    2.6587827E+06   -4.0405243E+02    2.7749579E-02    2.6528788E+06   -2.6629647E-02    2.6409538E+06
    1.62   600.000   -1.829E+02    2.6854789E+06   -1.1555043E+02    2.7799445E-02    2.6799111E+06   -2.9025893E-02    2.6674684E+06
    1.63   600.000   -1.837E+02    2.7125879E+06    3.1818747E+02    2.7638017E-02    2.7072385E+06   -3.1008785E-02    2.6944602E+06
    1.64   600.000   -1.845E+02    2.7397727E+06    8.7644462E+02    2.7267195E-02    2.7345552E+06   -3.2480406E-02    2.7216253E+06
    1.65   600.000   -1.853E+02    2.7667377E+06    1.5244373E+03    2.6696917E-02    2.7616033E+06   -3.3372622E-02    2.7486921E+06
    1.66   600.000   -1.861E+02    2.7933002E+06    2.2145940E+03    2.5945463E-02    2.7882346E+06   -3.3654731E-02    2.7754875E+06
    1.67   600.000   -1.868E+02    2.8194458E+06    2.8903949E+03    2.5038011E-02    2.8144575E+06   -3.3336141E-02    2.8019904E+06
    1.68   600.000   -1.876E+02    2.8453527E+06    3.4921939E+03    2.4003614E-02    2.8404553E+06   -3.2463576E-02    2.8283573E+06
    1.69   600.000   -1.883E+02    2.8713782E+06    3.9639215E+03    2.2871406E-02    2.8665717E+06   -3.1113634E-02    2.8549143E+06
    1.70   600.000   -1.890E+02    2.8980109E+06    4.2593916E+03    2.1667046E-02    2.8932649E+06   -2.9382654E-02    2.8821155E+06
    1.71   600.000   -1.898E+02    2.9257999E+06    4.3470948E+03    2.0410240E-02    2.9210414E+06   -2.7376294E-02    2.9104788E+06
    1.72   600.000   -1.905E+02    2.9552735E+06    4.2127399E+03    1.9113767E-02    2.9503821E+06   -2.5200841E-02    2.9405098E+06
    1.73   600.000   -1.912E+02    2.9868631E+06    3.8592881E+03    1.7783951E-02    2.9816741E+06   -2.2957272E-02    2.9726278E+06
    1.74   600.000   -1.919E+02    3.0208426E+06    3.3047221E+03    1.6422196E-02    3.0151575E+06   -2.0737940E-02    3.0071046E+06
    1.75   600.000   -1.926E+02    3.0572891E+06    2.5782515E+03    1.5027106E-02    3.0508921E+06   -1.8624877E-02    3.0440208E+06
    1.76   600.000   -1.933E+02    3.0960682E+06    1.7159530E+03    1.3596832E-02    3.0887459E+06   -1.6688488E-02    3.0832463E+06
    1.77   600.000   -1.940E+02    3.1368440E+06    7.5684722E+02    1.2131486E-02    3.1284057E+06   -1.4985724E-02    3.1244431E+06
    1.78   600.000   -1.947E+02    3.1791143E+06   -2.5994844E+02    1.0635654E-02    3.1694083E+06   -1.3557516E-02    3.1670956E+06
    1.79   600.000   -1.954E+02    3.2222693E+06   -1.2969684E+03    9.1210648E-03    3.2111931E+06   -1.2425971E-02    3.2105651E+06
    1.80   600.000   -1.961E+02    3.2656712E+06   -2.3196175E+03    7.6092981E-03    3.2531723E+06   -1.1592309E-02    3.2541686E+06
    1.81   600.000   -1.969E+02    3.3087453E+06   -3.2976554E+03    6.1340565E-03    3.2948131E+06   -1.1036571E-02    3.2972725E+06
    1.82   600.000   -1.976E+02    3.3510699E+06   -4.2074442E+03    4.7421929E-03    3.3357194E+06   -1.0719815E-02    3.3393893E+06
    1.83   600.000   -1.983E+02    3.3924479E+06   -5.0347493E+03    3.4924759E-03    3.3757002E+06   -1.0588959E-02    3.3802609E+06
    1.84   600.000   -1.990E+02    3.4329468E+06   -5.7771578E+03    2.4512439E-03    3.4148110E+06   -1.0583844E-02    3.4199109E+06
    1.85   600.000   -1.997E+02    3.4728961E+06   -6.4448643E+03    1.6846410E-03    3.4533580E+06   -1.0645626E-02    3.4586566E+06
    1.86   600.000   -2.004E+02    3.5128433E+06   -7.0589036E+03    1.2479690E-03    3.4918647E+06   -1.0725351E-02    3.4970750E+06
    1.87   600.000   -2.012E+02    3.5534763E+06   -7.6467742E+03    1.1736238E-03    3.5310057E+06   -1.0791491E-02    3.5359297E+06
    1.88   600.000   -2.019E+02    3.5955282E+06   -8.2363848E+03    1.4598791E-03    3.5715219E+06   -1.0835239E-02    3.5760724E+06
    1.89   600.000   -2.026E+02    3.6396842E+06   -8.8499015E+03    2.0631748E-03    3.6141324E+06   -1.0872605E-02    3.6183382E+06
    1.90   600.000   -2.034E+02    3.6865031E+06   -9.4990987E+03    2.8963756E-03    3.6594581E+06   -1.0942680E-02    3.6634523E+06
    1.91   600.000   -2.041E+02    3.7363670E+06   -1.0183262E+04    3.8345594E-03    3.7079668E+06   -1.1102012E-02    3.7119607E+06
    1.92   600.000   -2.049E+02    3.7894572E+06   -1.0889842E+04    4.7283627E-03    3.7599432E+06   -1.1415728E-02    3.7641900E+06
    1.93   600.000   -2.056E+02    3.8457562E+06   -1.1597283E+04    5.4230597E-03    3.8154802E+06   -1.1946737E-02    3.8202349E+06
    1.94   600.000   -2.064E+02    3.9050694E+06   -1.2278971E+04    5.7799211E-03    3.8744894E+06   -1.2744867E-02    3.8799689E+06
    1.95   600.000   -2.072E+02    3.9670662E+06   -1.2907214E+04    5.6955307E-03    3.9367284E+06   -1.3837845E-02    3.9430774E+06
    1.96   600.000   -2.079E+02    4.0313387E+06   -1.3456417E+04    5.1149982E-03    4.0018487E+06   -1.5225681E-02    4.0091129E+06
    1.97   600.000   -2.087E+02    4.0974828E+06   -1.3905037E+04    4.0363629E-03    4.0694648E+06   -1.6879252E-02    4.0775763E+06
    1.98   600.000   -2.095E+02    4.1651959E+06   -1.4236348E+04    2.5055445E-03    4.1392476E+06   -1.8743040E-02    4.1480225E+06
    1.99   600.000   -2.103E+02    4.2343850E+06   -1.4438364E+04    6.0336784E-04    4.2110323E+06   -2.0741293E-02    4.2201823E+06
    2.00   600.000   -2.111E+02    4.3052669E+06   -1.4503438E+04   -1.5721416E-03    4.2849277E+06   -2.2786475E-02    4.2940833E+06
    2.01   600.000   -2.119E+02    4.3784409E+06   -1.4428125E+04   -3.9241975E-03    4.3614029E+06   -2.4788722E-02    4.3701470E+06
    2.02   600.000   -2.127E+02    4.4549144E+06   -1.4213692E+04   -6.3726207E-03    4.4413334E+06   -2.6665000E-02    4.4492381E+06
    2.03   600.000   -2.135E+02    4.5360713E+06   -1.3867453E+04   -8.8633232E-03    4.5259882E+06   -2.8346692E-02    4.5326493E+06
    2.04   600.000   -2.142E+02    4.6235794E+06   -1.3404701E+04   -1.1370575E-02    4.6169536E+06   -2.9784498E-02    4.6220176E+06
    2.05   600.000   -2.150E+02    4.7192470E+06   -1.2850695E+04   -1.3892311E-02    4.7159986E+06   -3.0949832E-02    4.7191779E+06
    2.06   600.000   -2.158E+02    4.8248423E+06   -1.2241843E+04   -1.6440110E-02    4.8248956E+06   -3.1832533E-02    4.8259722E+06
    2.07   600.000   -2.166E+02    4.9418948E+06   -1.1625154E+04   -1.9026428E-02    4.9452141E+06   -3.2435464E-02    4.9440352E+06
    2.08   600.000   -2.174E+02    5.0714956E+06   -1.1055176E+04   -2.1652022E-02    5.0781102E+06   -3.2767358E-02    5.0745812E+06
    2.09   600.000   -2.183E+02    5.2141199E+06   -1.0588128E+04   -2.4296312E-02    5.2241335E+06   -3.2835730E-02    5.2182138E+06
    2.10   600.000   -2.191E+02    5.3694905E+06   -1.0273669E+04   -2.6912751E-02    5.3830780E+06   -3.2641679E-02    5.3747814E+06
    2.11   600.000   -2.199E+02    5.5365088E+06   -1.0145598E+04   -2.9430286E-02    5.5538997E+06   -3.2177825E-02    5.5433014E+06
    2.12   600.000   -2.207E+02    5.7132697E+06   -1.0213470E+04   -3.1760818E-02    5.7347235E+06   -3.1429721E-02    5.7219677E+06
    2.13   600.000   -2.215E+02    5.8971726E+06   -1.0457282E+04   -3.3811485E-02    5.9229451E+06   -3.0380042E-02    5.9082525E+06
    2.14   600.000   -2.222E+02    6.0851180E+06   -1.0826948E+04   -3.5499579E-02    6.1154238E+06   -2.9014064E-02    6.0990921E+06
    2.15   600.000   -2.230E+02    6.2737630E+06   -1.1247157E+04   -3.6767340E-02    6.3087367E+06   -2.7324648E-02    6.2911332E+06
    2.16   600.000   -2.238E+02    6.4597975E+06   -1.1626934E+04   -3.7593702E-02    6.4994587E+06   -2.5315224E-02    6.4810028E+06
    2.17   600.000   -2.246E+02    6.6401984E+06   -1.1872042E+04   -3.8000564E-02    6.6844257E+06   -2.2999975E-02    6.6655640E+06
    2.18   600.000   -2.254E+02    6.8124356E+06   -1.1897869E+04   -3.8052129E-02    6.8609539E+06   -2.0401403E-02    6.8421307E+06
    2.19   600.000   -2.262E+02    6.9746184E+06   -1.1640606E+04   -3.7847326E-02    7.0270029E+06   -1.7546240E-02    7.0086309E+06
    2.20   600.000   -2.270E+02    7.1255913E+06   -1.1065191E+04   -3.7506736E-02    7.1812869E+06   -1.4461226E-02    7.1637223E+06
    2.21   600.000   -2.278E+02    7.2649898E+06   -1.0169357E+04   -3.7156652E-02    7.3233420E+06   -1.1170285E-02    7.3068701E+06
    2.22   600.000   -2.285E+02    7.3932653E+06   -8.9837491E+03   -3.6913274E-02    7.4535562E+06   -7.6942881E-03    7.4383873E+06
    2.23   600.000   -2.293E+02    7.5116719E+06   -7.5684521E+03   -3.6869759E-02    7.5731528E+06   -4.0537415E-03    7.5594298E+06
    2.24   600.000   -2.300E+02    7.6221994E+06   -6.0064127E+03   -3.7087803E-02    7.6841128E+06   -2.7377091E-04    7.6719282E+06
    2.25   600.000   -2.308E+02    7.7274357E+06   -4.3944284E+03   -3.7594293E-02    7.7890222E+06    3.6101679E-03    7.7784398E+06
    2.26   600.000   -2.315E+02    7.8303505E+06   -2.8326484E+03   -3.8382523E-02    7.8908404E+06    7.5478314E-03    7.8819188E+06
    2.27   600.000   -2.322E+02    7.9340122E+06   -1.4138884E+03   -3.9416865E-02    7.9926063E+06    1.1472656E-02    7.9854191E+06
    2.28   600.000   -2.329E+02    8.0412667E+06   -2.1424733E+02   -4.0639565E-02    8.0971162E+06    1.5303844E-02    8.0917665E+06
    2.29   600.000   -2.336E+02    8.1544222E+06    7.1365349E+02   -4.1978399E-02    8.2066193E+06    1.8951512E-02    8.2032444E+06
    2.30   600.000   -2.343E+02    8.2749823E+06    1.3440435E+03   -4.3354132E-02    8.3225724E+06    2.2323411E-02    8.3213377E+06
    2.31   600.000   -2.350E+02    8.4034652E+06    1.6779626E+03   -4.4687045E-02    8.4454860E+06    2.5331457E-02    8.4465670E+06
    2.32   600.000   -2.357E+02    8.5393286E+06    1.7404206E+03   -4.5902151E-02    8.5748743E+06    2.7896890E-02    8.5784282E+06
    2.33   600.000   -2.364E+02    8.6810047E+06    1.5756790E+03   -4.6933108E-02    8.7093048E+06    2.9953777E-02    8.7154357E+06
    2.34   600.000   -2.371E+02    8.8260330E+06    1.2415475E+03   -4.7725118E-02    8.8465314E+06    3.1451435E-02    8.8552548E+06
    2.35   600.000   -2.378E+02    8.9712691E+06    8.0340627E+02   -4.8237176E-02    8.9836851E+06    3.2356596E-02    8.9949002E+06
    2.36   600.000   -2.385E+02    9.1131380E+06    3.2854657E+02   -4.8443965E-02    9.1174986E+06    3.2655810E-02    9.1309738E+06
    2.37   600.000   -2.392E+02    9.2479027E+06   -1.1855682E+02   -4.8337405E-02    9.2445368E+06    3.2357839E-02    9.2599139E+06
    2.38   600.000   -2.399E+02    9.3719169E+06   -4.7940022E+02   -4.7927542E-02    9.3614127E+06    3.1495228E-02    9.3782303E+06
    2.39   600.000   -2.406E+02    9.4818430E+06   -7.0259121E+02   -4.7242230E-02    9.4649744E+06    3.0124122E-02    9.4827070E+06
    2.40   600.000   -2.413E+02    9.5748233E+06   -7.4308321E+02   -4.6324957E-02    9.5524566E+06    2.8321867E-02    9.5705629E+06
    2.41   600.000   -2.420E+02    9.6486108E+06   -5.6038276E+02   -4.5230391E-02    9.6216052E+06    2.6182724E-02    9.6395779E+06
    2.42   600.000   -2.427E+02    9.7016725E+06   -1.1722774E+02   -4.4017576E-02    9.6707895E+06    2.3812627E-02    9.6881991E+06
    2.43   600.000   -2.434E+02    9.7332837E+06    6.1969676E+02   -4.2741308E-02    9.6991191E+06    2.1324035E-02    9.7156461E+06
    2.44   600.000   -2.442E+02    9.7436245E+06    1.6761176E+03   -4.1442726E-02    9.7065720E+06    1.8831472E-02    9.7220230E+06
    2.45   600.000   -2.449E+02    9.7338701E+06    3.0639842E+03   -4.0140593E-02    9.6941218E+06    1.6447675E-02    9.7084298E+06
    2.46   600.000   -2.456E+02    9.7062474E+06    4.7744731E+03   -3.8824859E-02    9.6638284E+06    1.4279757E-02    9.6770369E+06
    2.47   600.000   -2.463E+02    9.6640147E+06    6.7727921E+03   -3.7453940E-02    9.6188449E+06    1.2424786E-02    9.6310793E+06
    2.48   600.000   -2.470E+02    9.6113245E+06    8.9973182E+03   -3.5956715E-02    9.5632959E+06    1.0964534E-02    9.5747271E+06
    2.49   600.000   -2.477E+02    9.5529543E+06    1.1364525E+04   -3.4239585E-02    9.5020092E+06    9.9597281E-03    9.5128160E+06
    2.50   600.000   -2.484E+02    9.4939254E+06    1.3779417E+04   -3.2198210E-02    9.4401228E+06    9.4445353E-03    9.4504600E+06
    2.51   600.000   -2.490E+02    9.4390671E+06    1.6149420E+04   -2.9732751E-02    9.3826276E+06    9.4221720E-03    9.3926058E+06
    2.52   600.000   -2.497E+02    9.3926083E+06    1.8398501E+04   -2.6764755E-02    9.3339309E+06    9.8624870E-03    9.3436093E+06
    2.53   600.000   -2.504E+02    9.3578694E+06    2.0478173E+04   -2.3253301E-02    9.2975187E+06    1.0702107E-02    9.3069093E+06
    2.54   600.000   -2.511E+02    9.3371013E+06    2.2372965E+04   -1.9207962E-02    9.2757694E+06    1.1847375E-02    9.2848466E+06
    2.55   600.000   -2.517E+02    9.3314788E+06    2.4099534E+04   -1.4696469E-02    9.2699269E+06    1.3179846E-02    9.2786359E+06
    2.56   600.000   -2.524E+02    9.3412151E+06    2.5700238E+04   -9.8456939E-03    9.2802076E+06    1.4563675E-02    9.2884665E+06
    2.57   600.000   -2.530E+02    9.3657495E+06    2.7232983E+04   -4.8354733E-03    9.3059896E+06    1.5853950E-02    9.3136847E+06
    2.58   600.000   -2.537E+02    9.4039554E+06    2.8759435E+04    1.1428445E-04    9.3460349E+06    1.6905116E-02    9.3530116E+06
    2.59   600.000   -2.543E+02    9.4543300E+06    3.0333269E+04    4.7619433E-03    9.3987003E+06    1.7578981E-02    9.4047563E+06
    2.60   600.000   -2.550E+02    9.5151442E+06    3.1989644E+04    8.8659095E-03    9.4621117E+06    1.7752307E-02    9.4669963E+06
    2.61   600.000   -2.556E+02    9.5845412E+06    3.3736828E+04    1.2207211E-02    9.5342854E+06    1.7324246E-02    9.5377084E+06
    2.62   600.000   -2.562E+02    9.6605842E+06    3.5550899E+04    1.4609961E-02    9.6131921E+06    1.6223818E-02    9.6148384E+06
    2.63   600.000   -2.568E+02    9.7412547E+06    3.7374533E+04    1.5956955E-02    9.6967623E+06    1.4417142E-02    9.6963087E+06
    2.64   600.000   -2.574E+02    9.8244124E+06    3.9120685E+04    1.6198420E-02    9.7828440E+06    1.1913564E-02    9.7799721E+06
    2.65   600.000   -2.580E+02    9.9077339E+06    4.0681304E+04    1.5353121E-02    9.8691309E+06    8.7693570E-03    9.8635320E+06
    2.66   600.000   -2.586E+02    9.9886543E+06    4.1940245E+04    1.3502388E-02    9.9530891E+06    5.0876170E-03    9.9444597E+06
    2.67   600.000   -2.592E+02    1.0064337E+07    4.2788489E+04    1.0778690E-02    1.0031909E+07    1.0133655E-03    1.0019941E+07
    2.68   600.000   -2.598E+02    1.0131694E+07    4.3139075E+04    7.3510270E-03    1.0102512E+07   -3.2763864E-03    1.0086877E+07
    2.69   600.000   -2.603E+02    1.0187455E+07    4.2938994E+04    3.4094342E-03    1.0161613E+07   -7.5868735E-03    1.0141953E+07
    2.70   600.000   -2.609E+02    1.0228304E+07    4.2175996E+04   -8.4936597E-04    1.0205853E+07   -1.1722422E-02    1.0181767E+07
    2.71   600.000   -2.614E+02    1.0251038E+07    4.0879365E+04   -5.2336945E-03    1.0231971E+07   -1.5503579E-02    1.0203010E+07
    2.72   600.000   -2.620E+02    1.0252768E+07    3.9115203E+04   -9.5651918E-03    1.0237009E+07   -1.8782126E-02    1.0202672E+07
    2.73   600.000   -2.625E+02    1.0231118E+07    3.6977883E+04   -1.3683529E-02    1.0218519E+07   -2.1452099E-02    1.0178255E+07
    2.74   600.000   -2.630E+02    1.0184428E+07    3.4579986E+04   -1.7448162E-02    1.0174773E+07   -2.3455897E-02    1.0127980E+07
    2.75   600.000   -2.635E+02    1.0111942E+07    3.2042866E+04   -2.0738303E-02    1.0104948E+07   -2.4785468E-02    1.0050976E+07
    2.76   600.000   -2.640E+02    1.0013966E+07    2.9489223E+04   -2.3452571E-02    1.0009281E+07   -2.5479153E-02    9.9474365E+06
    2.77   600.000   -2.644E+02    9.8919693E+06    2.7037858E+04   -2.5509594E-02    9.8891726E+06   -2.5614959E-02    9.8187258E+06
    2.78   600.000   -2.649E+02    9.7486037E+06    2.4799779E+04   -2.6850330E-02    9.7472007E+06   -2.5300890E-02    9.6674019E+06
    2.79   600.000   -2.654E+02    9.5876019E+06    2.2874373E+04   -2.7442063E-02    9.5870305E+06   -2.4662976E-02    9.4971332E+06
    2.80   600.000   -2.658E+02    9.4135557E+06    2.1344755E+04   -2.7283283E-02    9.4131978E+06   -2.3831850E-02    9.3124893E+06
    2.81   600.000   -2.662E+02    9.2315785E+06    2.0272355E+04   -2.6408164E-02    9.2307817E+06   -2.2929235E-02    9.1186175E+06
    2.82   600.000   -2.667E+02    9.0468965E+06    1.9691692E+04   -2.4889150E-02    9.0450021E+06   -2.2056072E-02    8.9208384E+06
    2.83   600.000   -2.671E+02    8.8644240E+06    1.9606677E+04   -2.2836313E-02    8.8607982E+06   -2.1284116E-02    8.7242195E+06
    2.84   600.000   -2.675E+02    8.6883852E+06    1.9989326E+04   -2.0392576E-02    8.6824480E+06   -2.0652235E-02    8.5331874E+06
    2.85   600.000   -2.679E+02    8.5220298E+06    2.0780915E+04   -1.7724519E-02    8.5132786E+06   -2.0167700E-02    8.3512322E+06
    2.86   600.000   -2.683E+02    8.3674708E+06    2.1894835E+04   -1.5009335E-02    8.3554945E+06   -1.9811571E-02    8.1807368E+06
    2.87   600.000   -2.687E+02    8.2256486E+06    2.3220270E+04   -1.2419340E-02    8.2101334E+06   -1.9546543E-02    8.0229389E+06
    2.88   600.000   -2.691E+02    8.0964108E+06    2.4626439E+04   -1.0106150E-02    8.0771378E+06   -1.9325340E-02    7.8780120E+06
    2.89   600.000   -2.694E+02    7.9786817E+06    2.5968140E+04   -8.1869201E-03    7.9555231E+06   -1.9098141E-02    7.7452381E+06
    2.90   600.000   -2.698E+02    7.8706989E+06    2.7094132E+04   -6.7348311E-03    7.8436148E+06   -1.8818181E-02    7.6232401E+06
    2.91   600.000   -2.702E+02    7.7702913E+06    2.7859856E+04   -5.7753254E-03    7.7393331E+06   -1.8445358E-02    7.5102437E+06
    2.92   600.000   -2.706E+02    7.6751800E+06    2.8144792E+04   -5.2886410E-03    7.6405001E+06   -1.7948108E-02    7.4043495E+06
    2.93   600.000   -2.710E+02    7.5832798E+06    2.7872583E+04   -5.2181416E-03    7.5451452E+06   -1.7303946E-02    7.3037964E+06
    2.94   600.000   -2.713E+02    7.4929799E+06    2.7029690E+04   -5.4829827E-03    7.4517833E+06   -1.6498987E-02    7.2072045E+06
    2.95   600.000   -2.717E+02    7.4033736E+06    2.5676881E+04   -5.9928800E-03    7.3596360E+06   -1.5526718E-02    7.1137794E+06
    2.96   600.000   -2.721E+02    7.3144110E+06    2.3948435E+04   -6.6623037E-03    7.2687678E+06   -1.4386255E-02    7.0234570E+06
    2.97   600.000   -2.725E+02    7.2269509E+06    2.2036725E+04   -7.4214593E-03    7.1801191E+06   -1.3080444E-02    6.9369697E+06
    2.98   600.000   -2.729E+02    7.1427041E+06    2.0164064E+04   -8.2220629E-03    7.0954329E+06   -1.1614273E-02    6.8558189E+06
    2.99   600.000   -2.732E+02    7.0640710E+06    1.8547628E+04   -9.0371517E-03    7.0170806E+06   -9.9940478E-03    6.7821482E+06
    3.00   600.000   -2.736E+02    6.9938887E+06    1.7365221E+04   -9.8557043E-03    6.9478078E+06   -8.2276124E-03    6.7185211E+06
    3.01   600.000   -2.740E+02    6.9351074E+06    1.6728991E+04   -1.0674191E-02    6.8904199E+06   -6.3256128E-03    6.6676170E+06
    3.02   600.000   -2.744E+02    6.8904214E+06    1.6671584E+04   -1.1487856E-02    6.8474310E+06   -4.3034464E-03    6.6318712E+06
    3.03   600.000   -2.747E+02    6.8618886E+06    1.7145896E+04   -1.2284296E-02    6.8207080E+06   -2.1833008E-03    6.6130960E+06
    3.04   600.000   -2.751E+02    6.8505840E+06    1.8036839E+04   -1.3040869E-02    6.8111496E+06    4.4459541E-06    6.6121340E+06
    3.05   600.000   -2.755E+02    6.8563414E+06    1.9181619E+04   -1.3726079E-02    6.8184504E+06    2.2211430E-03    6.6286037E+06
    3.06   600.000   -2.759E+02    6.8776429E+06    2.0394193E+04   -1.4303800E-02    6.8410046E+06    4.4215484E-03    6.6607950E+06
    3.07   600.000   -2.762E+02    6.9117006E+06    2.1489438E+04   -1.4738547E-02    6.8759914E+06    6.5573128E-03    6.7057565E+06
    3.08   600.000   -2.766E+02    6.9547495E+06    2.2303285E+04   -1.4999983E-02    6.9196601E+06    8.5817598E-03    6.7595892E+06
    3.09   600.000   -2.770E+02    7.0025318E+06    2.2706459E+04   -1.5065515E-02    6.9677957E+06    1.0454930E-02    6.8179230E+06
    3.10   600.000   -2.773E+02    7.0509092E+06    2.2611303E+04   -1.4920750E-02    7.0163082E+06    1.2147559E-02    6.8765163E+06
    3.11   600.000   -2.777E+02    7.0965077E+06    2.1972966E+04   -1.4558453E-02    7.0618548E+06    1.3642780E-02    6.9318869E+06
    3.12   600.000   -2.781E+02    7.1372826E+06    2.0787340E+04   -1.3977088E-02    7.1023900E+06    1.4934970E-02    6.9818661E+06
    3.13   600.000   -2.784E+02    7.1729005E+06    1.9088229E+04   -1.3179952E-02    7.1375450E+06    1.6026007E-02    7.0259823E+06
    3.14   600.000   -2.788E+02    7.2048734E+06    1.6945151E+04   -1.2175438E-02    7.1687711E+06    1.6920035E-02    7.0656034E+06
    3.15   600.000   -2.792E+02    7.2364249E+06    1.4461464E+04   -1.0978274E-02    7.1992254E+06    1.7618286E-02    7.1038236E+06
    3.16   600.000   -2.795E+02    7.2721247E+06    1.1770924E+04   -9.6111259E-03    7.2334278E+06    1.8115344E-02    7.1451190E+06
    3.17   600.000   -2.799E+02    7.3173600E+06    9.0302316E+03   -8.1057870E-03    7.2767531E+06    1.8397755E-02    7.1948413E+06
    3.18   600.000   -2.803E+02    7.3777320E+06    6.4060202E+03   -6.5033694E-03    7.3348387E+06    1.8445095E-02    7.2586302E+06
    3.19   600.000   -2.806E+02    7.4584602E+06    4.0569538E+03   -4.8532697E-03    7.4129907E+06    1.8232961E-02    7.3418256E+06
    3.20   600.000   -2.810E+02    7.5638597E+06    2.1139483E+03   -3.2109196E-03    7.5156519E+06    1.7736936E-02    7.4489413E+06
    3.21   600.000   -2.814E+02    7.6969307E+06    6.6296395E+02   -1.6343694E-03    7.6459747E+06    1.6936444E-02    7.5832410E+06
    3.22   600.000   -2.817E+02    7.8590768E+06   -2.6554184E+02   -1.7964249E-04    7.8055202E+06    1.5817687E-02    7.7464307E+06
    3.23   600.000   -2.821E+02    8.0499473E+06   -6.9830806E+02    1.1052174E-03    7.9940824E+06    1.4375247E-02    7.9384681E+06
    3.24   600.000   -2.825E+02    8.2673864E+06   -7.1241594E+02    2.1871800E-03    8.2096253E+06    1.2612458E-02    8.1574753E+06
    3.25   600.000   -2.829E+02    8.5074639E+06   -4.2218491E+02    3.0554655E-03    8.4483098E+06    1.0541003E-02    8.3997380E+06
    3.26   600.000   -2.833E+02    8.7645665E+06    3.7028810E+01    3.7273591E-03    8.7045872E+06    8.1802608E-03    8.6597772E+06
    3.27   600.000   -2.838E+02    9.0315324E+06    5.2521991E+02    4.2505701E-03    8.9713426E+06    5.5567231E-03    8.9304823E+06
    3.28   600.000   -2.842E+02    9.2998303E+06    9.1225623E+02    4.7004152E-03    9.2400808E+06    2.7034715E-03    9.2033049E+06
    3.29   600.000   -2.846E+02    9.5597962E+06    1.0894427E+03    5.1712121E-03    9.5011685E+06   -3.4053742E-04    9.4685251E+06
    3.30   600.000   -2.851E+02    9.8009579E+06    9.7779347E+02    5.7628642E-03    9.7441555E+06   -3.5316526E-03    9.7156092E+06
    3.31   600.000   -2.855E+02    1.0012477E+07    5.3315558E+02    6.5651072E-03    9.9582096E+06   -6.8232229E-03    9.9336802E+06
    3.32   600.000   -2.860E+02    1.0183732E+07   -2.5148572E+02    7.6427253E-03    1.0132686E+07   -1.0167531E-02    1.0112113E+07
    3.33   600.000   -2.865E+02    1.0305027E+07   -1.3462993E+03    9.0249331E-03    1.0257826E+07   -1.3517435E-02    1.0241240E+07
    3.34   600.000   -2.869E+02    1.0368388E+07   -2.6876350E+03    1.0701143E-02    1.0325547E+07   -1.6827157E-02    1.0313120E+07
    3.35   600.000   -2.874E+02    1.0368346E+07   -4.1843041E+03    1.2623850E-02    1.0330224E+07   -2.0051859E-02    1.0322283E+07
    3.36   600.000   -2.879E+02    1.0302590E+07   -5.7276681E+03    1.4717793E-02    1.0269357E+07   -2.3146096E-02    1.0266347E+07
    3.37   600.000   -2.884E+02    1.0172365E+07   -7.2054668E+03    1.6893299E-02    1.0143987E+07   -2.6061617E-02    1.0146390E+07
    3.38   600.000   -2.889E+02    9.9825290E+06   -8.5180697E+03    1.9061015E-02    9.9587685E+06   -2.8745302E-02    9.9669991E+06
    3.39   600.000   -2.893E+02    9.7412016E+06   -9.5944425E+03    2.1145161E-02    9.7216395E+06   -3.1138023E-02    9.7359438E+06
    3.40   600.000   -2.898E+02    9.4590537E+06   -1.0404314E+04    2.3093029E-02    9.4431283E+06   -3.3175035E-02    9.4635120E+06
    3.41   600.000   -2.903E+02    9.1483225E+06   -1.0963356E+04    2.4879443E-02    9.1353778E+06   -3.4788147E-02    9.1615794E+06
    3.42   600.000   -2.908E+02    8.8217060E+06   -1.1329671E+04    2.6506027E-02    8.8110447E+06   -3.5909573E-02    8.8425549E+06
    3.43   600.000   -2.912E+02    8.4913048E+06   -1.1592045E+04    2.7996202E-02    8.4822373E+06   -3.6477107E-02    8.5183549E+06
    3.44   600.000   -2.917E+02    8.1677645E+06   -1.1852451E+04    2.9387545E-02    8.1596469E+06   -3.6440106E-02    8.1995544E+06
    3.45   600.000   -2.922E+02    7.8597201E+06   -1.2206621E+04    3.0723411E-02    7.8519760E+06   -3.5765674E-02    7.8948206E+06
    3.46   600.000   -2.926E+02    7.5735793E+06   -1.2726764E+04    3.2045588E-02    7.5657023E+06   -3.4444342E-02    7.6106679E+06
    3.47   600.000   -2.931E+02    7.3136107E+06   -1.3449832E+04    3.3389131E-02    7.3051509E+06   -3.2494403E-02    7.3515138E+06
    3.48   600.000   -2.936E+02    7.0822519E+06   -1.4373295E+04    3.4779805E-02    7.0727935E+06   -2.9963970E-02    7.1199549E+06
    3.49   600.000   -2.940E+02    6.8805279E+06   -1.5458676E+04    3.6233718E-02    6.8696670E+06   -2.6929981E-02    6.9171612E+06
    3.50   600.000   -2.945E+02    6.7084774E+06   -1.6641426E+04    3.7758240E-02    6.6958077E+06   -2.3493785E-02    6.7432890E+06
    3.51   600.000   -2.950E+02    6.5655145E+06   -1.7844432E+04    3.9353118E-02    6.5506265E+06   -1.9773660E-02    6.5978399E+06
    3.52   600.000   -2.955E+02    6.4506941E+06   -1.8991937E+04    4.1010962E-02    6.4331869E+06   -1.5895329E-02    6.4799326E+06
    3.53   600.000   -2.960E+02    6.3628857E+06   -2.0020889E+04    4.2716784E-02    6.3423880E+06   -1.1981964E-02    6.3884877E+06
    3.54   600.000   -2.965E+02    6.3008803E+06   -2.0887809E+04    4.4446776E-02    6.2770743E+06   -8.1452127E-03    6.3223439E+06
    3.55   600.000   -2.970E+02    6.2634556E+06   -2.1570645E+04    4.6166890E-02    6.2360993E+06   -4.4783631E-03    6.2803279E+06
    3.56   600.000   -2.976E+02    6.2494168E+06   -2.2066338E+04    4.7831894E-02    6.2183620E+06   -1.0521503E-03    6.2612939E+06
    3.57   600.000   -2.981E+02    6.2576155E+06   -2.2385559E+04    4.9385476E-02    6.2228205E+06    2.0868482E-03    6.2641348E+06
    3.58   600.000   -2.987E+02    6.2869396E+06   -2.2546250E+04    5.0761788E-02    6.2484749E+06    4.9156414E-03    6.2877640E+06
    3.59   600.000   -2.992E+02    6.3362675E+06   -2.2567364E+04    5.1888617E-02    6.2943144E+06    7.4326095E-03    6.3310639E+06
    3.60   600.000   -2.998E+02    6.4043864E+06   -2.2463900E+04    5.2692183E-02    6.3592251E+06    9.6541399E-03    6.3928070E+06
    3.61   600.000   -3.003E+02    6.4898828E+06   -2.2244003E+04    5.3103313E-02    6.4418707E+06    1.1610532E-02    6.4715564E+06
    3.62   600.000   -3.009E+02    6.5910204E+06   -2.1908438E+04    5.3064405E-02    6.5405637E+06    1.3341533E-02    6.5655634E+06
    3.63   600.000   -3.015E+02    6.7056266E+06   -2.1452302E+04    5.2536243E-02    6.6531522E+06    1.4891832E-02    6.6726771E+06
    3.64   600.000   -3.021E+02    6.8310090E+06   -2.0868279E+04    5.1503506E-02    6.7769444E+06    1.6306821E-02    6.7902833E+06
    3.65   600.000   -3.026E+02    6.9639259E+06   -2.0150470E+04    4.9977931E-02    6.9086941E+06    1.7628875E-02    6.9152894E+06
    3.66   600.000   -3.032E+02    7.1006315E+06   -1.9297767E+04    4.7998509E-02    7.0446621E+06    1.8894408E-02    7.0441714E+06
    3.67   600.000   -3.038E+02    7.2370123E+06   -1.8316035E+04    4.5628780E-02    7.1807638E+06    2.0131917E-02    7.1730941E+06
    3.68   600.000   -3.044E+02    7.3688162E+06   -1.7218697E+04    4.2951926E-02    7.3128001E+06    2.1361248E-02    7.2981064E+06
    3.69   600.000   -3.050E+02    7.4919574E+06   -1.6025796E+04    4.0064731E-02    7.4367521E+06    2.2594255E-02    7.4154000E+06
    3.70   600.000   -3.055E+02    7.6028595E+06   -1.4762011E+04    3.7071484E-02    7.5491069E+06    2.3836878E-02    7.5216016E+06
    3.71   600.000   -3.061E+02    7.6987811E+06   -1.3454411E+04    3.4078561E-02    7.6471633E+06    2.5092385E-02    7.6140558E+06
    3.72   600.000   -3.067E+02    7.7780663E+06   -1.2130781E+04    3.1189929E-02    7.7292648E+06    2.6365138E-02    7.6910520E+06
    3.73   600.000   -3.072E+02    7.8402706E+06   -1.0819040E+04    2.8503368E-02    7.7949175E+06    2.7663910E-02    7.7519543E+06
    3.74   600.000   -3.078E+02    7.8861400E+06   -9.5475626E+03    2.6107006E-02    7.8447685E+06    2.9003639E-02    7.7972138E+06
    3.75   600.000   -3.083E+02    7.9174487E+06   -8.3455742E+03    2.4075841E-02    7.8804515E+06    3.0404711E-02    7.8282609E+06
    3.76   600.000   -3.088E+02    7.9367283E+06   -7.2423970E+03    2.2468196E-02    7.9043302E+06    3.1889414E-02    7.8472999E+06
    3.77   600.000   -3.093E+02    7.9469389E+06   -6.2646725E+03    2.1322383E-02    7.9191850E+06    3.3476027E-02    7.8570354E+06
    3.78   600.000   -3.098E+02    7.9511317E+06   -5.4316917E+03    2.0653987E-02    7.9278924E+06    3.5171738E-02    7.8603707E+06
    3.79   600.000   -3.103E+02    7.9521445E+06   -4.7502421E+03    2.0454158E-02    7.9331355E+06    3.6966057E-02    7.8601125E+06
    3.80   600.000   -3.108E+02    7.9523609E+06   -4.2112262E+03    2.0689145E-02    7.9371736E+06    3.8826361E-02    7.8587146E+06
    3.81   600.000   -3.112E+02    7.9535459E+06   -3.7900923E+03    2.1301140E-02    7.9416838E+06    4.0696671E-02    7.8580867E+06
    3.82   600.000   -3.117E+02    7.9567644E+06   -3.4517468E+03    2.2210461E-02    7.9476798E+06    4.2500009E-02    7.8594820E+06
    3.83   600.000   -3.121E+02    7.9623782E+06   -3.1587287E+03    2.3319226E-02    7.9555040E+06    4.4143849E-02    7.8634688E+06
    3.84   600.000   -3.126E+02    7.9701095E+06   -2.8800380E+03    2.4516726E-02    7.9648840E+06    4.5527604E-02    7.8699754E+06
    3.85   600.000   -3.130E+02    7.9791547E+06   -2.5979110E+03    2.5686630E-02    7.9750396E+06    4.6550962E-02    7.8783893E+06
    3.86   600.000   -3.134E+02    7.9883359E+06   -2.3109784E+03    2.6715738E-02    7.9848295E+06    4.7122012E-02    7.8876938E+06
    3.87   600.000   -3.138E+02    7.9962789E+06   -2.0338352E+03    2.7503429E-02    7.9929291E+06    4.7164455E-02    7.8966292E+06
    3.88   600.000   -3.142E+02    8.0016132E+06   -1.7941396E+03    2.7970357E-02    7.9980325E+06    4.6623379E-02    7.9038752E+06
    3.89   600.000   -3.146E+02    8.0031878E+06   -1.6285052E+03    2.8064729E-02    7.9990707E+06    4.5469178E-02    7.9082526E+06
    3.90   600.000   -3.150E+02    8.0002813E+06   -1.5779559E+03    2.7764759E-02    7.9954225E+06    4.3699232E-02    7.9089315E+06
    3.91   600.000   -3.153E+02    7.9927769E+06   -1.6832060E+03    2.7076698E-02    7.9870851E+06    4.1337159E-02    7.9056183E+06
    3.92   600.000   -3.157E+02    7.9812608E+06   -1.9799485E+03    2.6028915E-02    7.9747618E+06    3.8429911E-02    7.8986823E+06
    3.93   600.000   -3.161E+02    7.9670121E+06   -2.4946177E+03    2.4663545E-02    7.9598378E+06    3.5043522E-02    7.8891834E+06
    3.94   600.000   -3.164E+02    7.9518737E+06   -3.2413449E+03    2.3027842E-02    7.9442361E+06    3.1258587E-02    7.8787803E+06
    3.95   600.000   -3.167E+02    7.9380213E+06   -4.2207379E+03    2.1167399E-02    7.9301732E+06    2.7166439E-02    7.8695294E+06
    3.96   600.000   -3.171E+02    7.9276721E+06   -5.4206923E+03    1.9122672E-02    7.9198612E+06    2.2866373E-02    7.8636073E+06
    3.97   600.000   -3.174E+02    7.9227842E+06   -6.8189636E+03    1.6929151E-02    7.9152053E+06    1.8463484E-02    7.8630082E+06
    3.98   600.000   -3.177E+02    7.9247917E+06   -8.3869222E+03    1.4620270E-02    7.9175436E+06    1.4066161E-02    7.8692630E+06
    3.99   600.000   -3.181E+02    7.9344052E+06   -1.0093830E+04    1.2231246E-02    7.9274560E+06    9.7821368E-03    7.8832142E+06
    4.00   600.000   -3.184E+02    7.9514926E+06   -1.1910959E+04    9.8017616E-03    7.9446566E+06    5.7125980E-03    7.9048688E+06
    4.01   600.000   -3.187E+02    7.9750447E+06   -1.3814821E+04    7.3758662E-03    7.9679734E+06    1.9447799E-03    7.9333362E+06
    4.02   600.000   -3.190E+02    8.0032290E+06   -1.5788703E+04    4.9985313E-03    7.9954182E+06   -1.4555400E-03    7.9668606E+06
    4.03   600.000   -3.193E+02    8.0335299E+06   -1.7821812E+04    2.7096044E-03    8.0243433E+06   -4.4496659E-03    8.0029450E+06
    4.04   600.000   -3.195E+02    8.0629684E+06   -1.9905728E+04    5.3703878E-04    8.0516772E+06   -7.0279307E-03    8.0385611E+06
    4.05   600.000   -3.198E+02    8.0883740E+06   -2.2028539E+04   -1.5082218E-03    8.0742099E+06   -9.2070708E-03    8.0704207E+06
    4.06   600.000   -3.201E+02    8.1066700E+06   -2.4167812E+04   -3.4336618E-03    8.0888856E+06   -1.1023380E-02    8.0952654E+06
    4.07   600.000   -3.204E+02    8.1151157E+06   -2.6284115E+04   -5.2619783E-03    8.0930490E+06   -1.2523077E-02    8.1101277E+06
    4.08   600.000   -3.206E+02    8.1114630E+06   -2.8316967E+04   -7.0237852E-03    8.0845998E+06   -1.3751859E-02    8.1125155E+06
    4.09   600.000   -3.209E+02    8.0939996E+06   -3.0184629E+04   -8.7481100E-03    8.0620313E+06   -1.4745535E-02    8.1004945E+06
    4.10   600.000   -3.211E+02    8.0614899E+06   -3.1788290E+04   -1.0453217E-02    8.0243638E+06   -1.5523176E-02    8.0726715E+06
    4.11   600.000   -3.214E+02    8.0130530E+06   -3.3020094E+04   -1.2140108E-02    7.9710114E+06   -1.6083592E-02    8.0281085E+06
    4.12   600.000   -3.216E+02    7.9480391E+06   -3.3773580E+04   -1.3790225E-02    7.9016414E+06   -1.6405456E-02    7.9662168E+06
    4.13   600.000   -3.218E+02    7.8659621E+06   -3.3954651E+04   -1.5367761E-02    7.8160851E+06   -1.6450913E-02    7.8866860E+06
    4.14   600.000   -3.221E+02    7.7665264E+06   -3.3491289E+04   -1.6826010E-02    7.7143355E+06   -1.6172161E-02    7.7894807E+06
    4.15   600.000   -3.223E+02    7.6497479E+06   -3.2340718E+04   -1.8116508E-02    7.5966360E+06   -1.5520154E-02    7.6749166E+06
    4.16   600.000   -3.225E+02    7.5161356E+06   -3.0493375E+04   -1.9199278E-02    7.4636311E+06   -1.4454286E-02    7.5437889E+06
    4.17   600.000   -3.227E+02    7.3668744E+06   -2.7973629E+04   -2.0052254E-02    7.3165248E+06   -1.2951654E-02    7.3975077E+06
    4.18   600.000   -3.230E+02    7.2039467E+06   -2.4837583E+04   -2.0677904E-02    7.1571945E+06   -1.1014433E-02    7.2381856E+06
    4.19   600.000   -3.232E+02    7.0301480E+06   -2.1168596E+04   -2.1105364E-02    6.9882144E+06   -8.6738972E-03    7.0686363E+06
    4.20   600.000   -3.234E+02    6.8489797E+06   -1.7071294E+04   -2.1387141E-02    6.8127757E+06   -5.9900157E-03    6.8922680E+06
    4.21   600.000   -3.236E+02    6.6644329E+06   -1.2664935E+04   -2.1590759E-02    6.6345087E+06   -3.0462423E-03    6.7128835E+06
    4.22   600.000   -3.238E+02    6.4807012E+06   -8.0769533E+03   -2.1787109E-02    6.4572402E+06    5.9871386E-05    6.5344185E+06
    4.23   600.000   -3.241E+02    6.3018712E+06   -3.4372423E+03   -2.2038328E-02    6.2847231E+06    3.2285498E-03    6.3606632E+06
    4.24   600.000   -3.243E+02    6.1316398E+06    1.1265792E+03   -2.2388173E-02    6.1203819E+06    6.3697269E-03    6.1950099E+06
    4.25   600.000   -3.245E+02    5.9730970E+06    5.4931022E+03   -2.2857028E-02    5.9671108E+06    9.4125204E-03    6.0402608E+06
    4.26   600.000   -3.248E+02    5.8286004E+06    9.5507158E+03   -2.3442117E-02    5.8271476E+06    1.2310388E-02    5.8985200E+06
    4.27   600.000   -3.250E+02    5.6997470E+06    1.3201379E+04   -2.4121945E-02    5.7020359E+06    1.5041325E-02    5.7711750E+06
    4.28   600.000   -3.253E+02    5.5874306E+06    1.6364864E+04   -2.4862914E-02    5.5926649E+06    1.7603830E-02    5.6589573E+06
    4.29   600.000   -3.255E+02    5.4919552E+06    1.8983272E+04   -2.5625906E-02    5.4993630E+06    2.0010311E-02    5.5620563E+06
    4.30   600.000   -3.258E+02    5.4131655E+06    2.1025065E+04   -2.6371212E-02    5.4220110E+06    2.2279949E-02    5.4802516E+06
    4.31   600.000   -3.261E+02    5.3505582E+06    2.2487590E+04   -2.7061162E-02    5.3601380E+06    2.4432574E-02    5.4130260E+06
    4.32   600.000   -3.263E+02    5.3033469E+06    2.3397241E+04   -2.7660793E-02    5.3129806E+06    2.6484302E-02    5.3596370E+06
    4.33   600.000   -3.266E+02    5.2704803E+06    2.3807018E+04   -2.8137491E-02    5.2795014E+06    2.8444878E-02    5.3191418E+06
    4.34   600.000   -3.269E+02    5.2506327E+06    2.3791944E+04   -2.8460677E-02    5.2583862E+06    3.0316141E-02    5.2903946E+06
    4.35   600.000   -3.272E+02    5.2421994E+06    2.3443284E+04   -2.8602274E-02    5.2480519E+06    3.2091086E-02    5.2720448E+06
    4.36   600.000   -3.275E+02    5.2433305E+06    2.2862628E+04   -2.8538131E-02    5.2466915E+06    3.3753259E-02    5.2625652E+06
    4.37   600.000   -3.278E+02    5.2520187E+06    2.2156692E+04   -2.8249971E-02    5.2523700E+06    3.5276719E-02    5.2603249E+06
    4.38   600.000   -3.281E+02    5.2662379E+06    2.1433260E+04   -2.7727074E-02    5.2631637E+06    3.6626984E-02    5.2637001E+06
    4.39   600.000   -3.284E+02    5.2841103E+06    2.0798142E+04   -2.6966896E-02    5.2773203E+06    3.7763388E-02    5.2712073E+06
    4.40   600.000   -3.287E+02    5.3040704E+06    2.0352436E+04   -2.5974223E-02    5.2934112E+06    3.8642870E-02    5.2816324E+06
    4.41   600.000   -3.290E+02    5.3249988E+06    2.0189055E+04   -2.4759052E-02    5.3104503E+06    3.9224689E-02    5.2941352E+06
    4.42   600.000   -3.293E+02    5.3463050E+06    2.0387564E+04   -2.3333999E-02    5.3279647E+06    3.9475021E-02    5.3083173E+06
    4.43   600.000   -3.296E+02    5.3679547E+06    2.1007105E+04   -2.1712338E-02    5.3460145E+06    3.9370198E-02    5.3242482E+06
    4.44   600.000   -3.299E+02    5.3904487E+06    2.2078193E+04   -1.9907660E-02    5.3651705E+06    3.8897587E-02    5.3424560E+06
    4.45   600.000   -3.302E+02    5.4147681E+06    2.3595064E+04   -1.7935643E-02    5.3864629E+06    3.8053822E-02    5.3638903E+06
    4.46   600.000   -3.305E+02    5.4423078E+06    2.5510573E+04   -1.5817687E-02    5.4113204E+06    3.6841016E-02    5.3898722E+06
    4.47   600.000   -3.309E+02    5.4748107E+06    2.7735289E+04   -1.3585540E-02    5.4415111E+06    3.5262299E-02    5.4220415E+06
    4.48   600.000   -3.312E+02    5.5143142E+06    3.0141613E+04   -1.1285580E-02    5.4790925E+06    3.3318198E-02    5.4623078E+06
    4.49   600.000   -3.315E+02    5.5631046E+06    3.2572709E+04   -8.9813460E-03    5.5263690E+06    3.1005095E-02    5.5128073E+06
    4.50   600.000   -3.318E+02    5.6236742E+06    3.4855210E+04   -6.7531691E-03    5.5858486E+06    2.8316241E-02    5.5758601E+06
    4.51   600.000   -3.321E+02    5.6986735E+06    3.6814049E+04   -4.6943393E-03    5.6601946E+06    2.5245146E-02    5.6539260E+06
    4.52   600.000   -3.324E+02    5.7908573E+06    3.8287565E+04   -2.9040057E-03    5.7521678E+06    2.1790558E-02    5.7495567E+06
    4.53   600.000   -3.327E+02    5.9030285E+06    3.9141219E+04   -1.4777885E-03    5.8645653E+06    1.7961956E-02    5.8653508E+06
    4.54   600.000   -3.330E+02    6.0379858E+06    3.9278587E+04   -4.9765724E-04    6.0001621E+06    1.3784365E-02    6.0039131E+06
    4.55   600.000   -3.333E+02    6.1984806E+06    3.8648730E+04   -2.2819430E-05    6.1616606E+06    9.3013407E-03    6.1678245E+06
    4.56   600.000   -3.337E+02    6.3871806E+06    3.7249352E+04   -8.3128049E-05    6.3516493E+06    4.5752595E-03    6.3596149E+06
    4.57   600.000   -3.340E+02    6.6066284E+06    3.5125448E+04   -6.7591401E-04    6.5725618E+06   -3.1546980E-04    6.5817307E+06
    4.58   600.000   -3.343E+02    6.8591797E+06    3.2363562E+04   -1.7663764E-03    6.8266207E+06   -5.2819668E-03    6.8364790E+06
    4.59   600.000   -3.346E+02    7.1468990E+06    2.9082404E+04   -3.2909296E-03    7.1157489E+06   -1.0232220E-02    7.1259288E+06
    4.60   600.000   -3.349E+02    7.4713982E+06    2.5421341E+04   -5.1624089E-03    7.4414286E+06   -1.5078719E-02    7.4517533E+06
    4.61   600.000   -3.353E+02    7.8336091E+06    2.1528780E+04   -7.2759048E-03    7.8044983E+06   -1.9744749E-02    7.8150072E+06
    4.62   600.000   -3.356E+02    8.2334947E+06    1.7552248E+04   -9.5142586E-03    8.2048887E+06   -2.4168045E-02    8.2158396E+06
    4.63   600.000   -3.360E+02    8.6697198E+06    1.3631110E+04   -1.1752827E-02    8.6413101E+06   -2.8301164E-02    8.6531647E+06
    4.64   600.000   -3.363E+02    9.1393152E+06    9.8915996E+03   -1.3863811E-02    9.1109256E+06   -3.2108865E-02    9.1243203E+06
    4.65   600.000   -3.367E+02    9.6373844E+06    6.4429472E+03   -1.5720926E-02    9.6090531E+06   -3.5563642E-02    9.6247620E+06
    4.66   600.000   -3.370E+02    1.0156918E+07    3.3734013E+03   -1.7205280E-02    1.0128961E+07   -3.8641109E-02    1.0147856E+07
    4.67   600.000   -3.374E+02    1.0688779E+07    7.4570211E+02   -1.8212834E-02    1.0661826E+07   -4.1316944E-02    1.0684837E+07
    4.68   600.000   -3.378E+02    1.1221934E+07   -1.4072902E+03   -1.8663009E-02    1.1196914E+07   -4.3566516E-02    1.1224997E+07
    4.69   600.000   -3.382E+02    1.1743950E+07   -3.0854118E+03   -1.8507124E-02    1.1722043E+07   -4.5367359E-02    1.1756152E+07
    4.70   600.000   -3.386E+02    1.2241778E+07   -4.3211455E+03   -1.7734826E-02    1.2224302E+07   -4.6703688E-02    1.2265378E+07
    4.71   600.000   -3.390E+02    1.2702730E+07   -5.1762022E+03   -1.6376696E-02    1.2691008E+07   -4.7571494E-02    1.2739971E+07
    4.72   600.000   -3.394E+02    1.3115552E+07   -5.7352555E+03   -1.4501897E-02    1.3110749E+07   -4.7982653E-02    1.3168498E+07
    4.73   600.000   -3.398E+02    1.3471402E+07   -6.0980084E+03   -1.2210755E-02    1.3474375E+07   -4.7966863E-02    1.3541783E+07
    4.74   600.000   -3.402E+02    1.3764555E+07   -6.3707266E+03   -9.6233146E-03    1.3775731E+07   -4.7570862E-02    1.3853623E+07
    4.75   600.000   -3.406E+02    1.3992679E+07   -6.6577762E+03   -6.8658293E-03    1.4011987E+07   -4.6854995E-02    1.4101093E+07
    4.76   600.000   -3.411E+02    1.4156628E+07   -7.0530593E+03   -4.0575246E-03    1.4183482E+07   -4.5887591E-02    1.4284367E+07
    4.77   600.000   -3.415E+02    1.4259788E+07   -7.6311380E+03   -1.2998573E-03    1.4293128E+07   -4.4737813E-02    1.4406100E+07
    4.78   600.000   -3.419E+02    1.4307159E+07   -8.4384707E+03    1.3301226E-03    1.4345528E+07   -4.3467693E-02    1.4470547E+07
    4.79   600.000   -3.423E+02    1.4304382E+07   -9.4862283E+03    3.7815730E-03    1.4346031E+07   -4.2124261E-02    1.4482634E+07
    4.80   600.000   -3.428E+02    1.4256953E+07   -1.0746879E+04    6.0270460E-03    1.4299959E+07   -4.0732939E-02    1.4447225E+07
    4.81   600.000   -3.432E+02    1.4169755E+07   -1.2156477E+04    8.0561209E-03    1.4212148E+07   -3.9293624E-02    1.4368716E+07
    4.82   600.000   -3.436E+02    1.4046976E+07   -1.3623233E+04    9.8671355E-03    1.4086870E+07   -3.7780880E-02    1.4251005E+07
    4.83   600.000   -3.440E+02    1.3892337E+07   -1.5041006E+04    1.1458888E-02    1.3928056E+07   -3.6149159E-02    1.4097767E+07
    4.84   600.000   -3.444E+02    1.3709504E+07   -1.6304682E+04    1.2823984E-02    1.3739705E+07   -3.4342967E-02    1.3912874E+07
    4.85   600.000   -3.448E+02    1.3502532E+07   -1.7323825E+04    1.3944984E-02    1.3526289E+07   -3.2310646E-02    1.3700809E+07
    4.86   600.000   -3.452E+02    1.3276176E+07   -1.8031741E+04    1.4793841E-02    1.3293031E+07   -3.0019178E-02    1.3466917E+07
    4.87   600.000   -3.456E+02    1.3035997E+07   -1.8388839E+04    1.5334485E-02    1.3045957E+07   -2.7466675E-02    1.3217428E+07
    4.88   600.000   -3.460E+02    1.2788229E+07   -1.8381045E+04    1.5527972E-02    1.2791715E+07   -2.4689268E-02    1.2959233E+07
    4.89   600.000   -3.464E+02    1.2539456E+07   -1.8015284E+04    1.5339275E-02    1.2537209E+07   -2.1760120E-02    1.2699494E+07
    4.90   600.000   -3.467E+02    1.2296190E+07   -1.7314187E+04    1.4744569E-02    1.2289165E+07   -1.8780216E-02    1.2445177E+07
    4.91   600.000   -3.471E+02    1.2064447E+07   -1.6311516E+04    1.3737756E-02    1.2053696E+07   -1.5862877E-02    1.2202616E+07
    4.92   600.000   -3.475E+02    1.1849400E+07   -1.5048830E+04    1.2334911E-02    1.1835977E+07   -1.3115952E-02    1.1977175E+07
    4.93   600.000   -3.478E+02    1.1655119E+07   -1.3573290E+04    1.0575654E-02    1.1640006E+07   -1.0626610E-02    1.1773020E+07
    4.94   600.000   -3.482E+02    1.1484398E+07   -1.1936219E+04    8.5209612E-03    1.1468454E+07   -8.4531313E-03    1.1592972E+07
    4.95   600.000   -3.486E+02    1.1338606E+07   -1.0192004E+04    6.2477077E-03    1.1322538E+07   -6.6260428E-03    1.1438395E+07
    4.96   600.000   -3.489E+02    1.1217559E+07   -8.3967789E+03    3.8410501E-03    1.1201908E+07   -5.1581177E-03    1.1309083E+07
    4.97   600.000   -3.493E+02    1.1119400E+07   -6.6061772E+03    1.3862695E-03    1.1104541E+07   -4.0599189E-03    1.1203163E+07
    4.98   600.000   -3.497E+02    1.1040562E+07   -4.8714312E+03   -1.0381991E-03    1.1026718E+07   -3.3558489E-03    1.1117064E+07
    4.99   600.000   -3.500E+02    1.0975872E+07   -3.2335123E+03   -3.3652475E-03    1.0963135E+07   -3.0955099E-03    1.1045629E+07
    5.00   600.000   -3.504E+02    1.0918847E+07   -1.7158483E+03   -5.5405513E-03    1.0907222E+07   -3.3565884E-03    1.0982412E+07
# T(K) = 700.00   Npoints =    1001   V(cm^3) =  1.139E-20
   -5.00   700.000    3.631E+02    3.1015449E+06    2.8791551E+03    2.8199178E-03    3.0919633E+06    2.7050579E-03    3.1144215E+06
   -4.99   700.000    3.621E+02    3.1308287E+06    2.6051467E+03    2.5861678E-03    3.1201506E+06    2.7884202E-03    3.1458571E+06
   -4.98   700.000    3.611E+02    3.1551707E+06    2.3438776E+03    2.3308179E-03    3.1434161E+06    2.7954900E-03    3.1721433E+06
   -4.97   700.000    3.602E+02    3.1753275E+06    2.0981940E+03    2.0838409E-03    3.1625512E+06    2.7184361E-03    3.1940695E+06
   -4.96   700.000    3.593E+02    3.1920815E+06    1.8681319E+03    1.8700340E-03    3.1783755E+06    2.5501716E-03    3.2124511E+06
   -4.95   700.000    3.583E+02    3.2061851E+06    1.6510089E+03    1.7071833E-03    3.1916781E+06    2.2852248E-03    3.2280682E+06
   -4.94   700.000    3.574E+02    3.2183032E+06    1.4419109E+03    1.6048833E-03    3.2031577E+06    1.9207227E-03    3.2416058E+06
   -4.93   700.000    3.565E+02    3.2289609E+06    1.2345439E+03    1.5640890E-03    3.2133669E+06    1.4574042E-03    3.2535983E+06
   -4.92   700.000    3.556E+02    3.2385019E+06    1.0223261E+03    1.5774422E-03    3.2226688E+06    9.0058366E-04    3.2643881E+06
   -4.91   700.000    3.548E+02    3.2470634E+06    7.9952741E+02    1.6303583E-03    3.2312090E+06    2.6097703E-04    3.2741005E+06
   -4.90   700.000    3.539E+02    3.2545695E+06    5.6223453E+02    1.7027828E-03    3.2389088E+06   -4.4471573E-04    3.2826387E+06
   -4.89   700.000    3.531E+02    3.2607461E+06    3.0895571E+02    1.7714338E-03    3.2454798E+06   -1.1935939E-03    3.2897022E+06
   -4.88   700.000    3.522E+02    3.2651551E+06    4.0758254E+01    1.8122615E-03    3.2504596E+06   -1.9568408E-03    3.2948247E+06
   -4.87   700.000    3.514E+02    3.2672455E+06   -2.3905772E+02    1.8028038E-03    3.2532657E+06   -2.7006383E-03    3.2974301E+06
   -4.86   700.000    3.506E+02    3.2664153E+06   -5.2564333E+02    1.7241214E-03    3.2532592E+06   -3.3877999E-03    3.2968984E+06
   -4.85   700.000    3.498E+02    3.2620759E+06   -8.1346612E+02    1.5620656E-03    3.2498137E+06   -3.9801291E-03    3.2926344E+06
   -4.84   700.000    3.489E+02    3.2537119E+06   -1.0971596E+03    1.3077645E-03    3.2423766E+06   -4.4413880E-03    3.2841285E+06
   -4.83   700.000    3.481E+02    3.2409270E+06   -1.3721906E+03    9.5736571E-04    3.2305187E+06   -4.7406165E-03    3.2710034E+06
   -4.82   700.000    3.474E+02    3.2234729E+06   -1.6352434E+03    5.1122737E-04    3.2139635E+06   -4.8554098E-03    3.2530400E+06
   -4.81   700.000    3.466E+02    3.2012572E+06   -1.8842983E+03   -2.7161368E-05    3.1925968E+06   -4.7746822E-03    3.2301818E+06
   -4.80   700.000    3.458E+02    3.1743329E+06   -2.1184500E+03   -6.5222551E-04    3.1664557E+06   -4.5004572E-03    3.2025199E+06
   -4.79   700.000    3.450E+02    3.1428739E+06   -2.3375548E+03   -1.3570742E-03    3.1357038E+06   -4.0483292E-03    3.1702630E+06
   -4.78   700.000    3.443E+02    3.1071410E+06   -2.5418085E+03   -2.1338678E-03    3.1005964E+06   -3.4464377E-03    3.1337002E+06
   -4.77   700.000    3.435E+02    3.0674455E+06   -2.7313418E+03   -2.9737853E-03    3.0614434E+06   -2.7330277E-03    3.0931613E+06
   -4.76   700.000    3.428E+02    3.0241154E+06   -2.9058903E+03   -3.8666993E-03    3.0185740E+06   -1.9528957E-03    3.0489827E+06
   -4.75   700.000    3.420E+02    2.9774679E+06   -3.0645631E+03   -4.8007244E-03    2.9723097E+06   -1.1531855E-03    3.0014811E+06
   -4.74   700.000    3.413E+02    2.9277911E+06   -3.2057096E+03   -5.7618079E-03    2.9229446E+06   -3.7908656E-04    2.9509378E+06
   -4.73   700.000    3.405E+02    2.8753351E+06   -3.3268765E+03   -6.7335011E-03    2.8707366E+06    3.3002359E-04    2.8975925E+06
   -4.72   700.000    3.398E+02    2.8203101E+06   -3.4248517E+03   -7.6970000E-03    2.8159054E+06    9.4353337E-04    2.8416465E+06
   -4.71   700.000    3.391E+02    2.7628912E+06   -3.4958008E+03   -8.6314997E-03    2.7586366E+06    1.4413386E-03    2.7832691E+06
   -4.70   700.000    3.384E+02    2.7032252E+06   -3.5355035E+03   -9.5148681E-03    2.6990883E+06    1.8142429E-03    2.7226076E+06
   -4.69   700.000    3.377E+02    2.6414378E+06   -3.5396898E+03   -1.0324621E-02    2.6373975E+06    2.0630835E-03    2.6597941E+06
   -4.68   700.000    3.370E+02    2.5776388E+06   -3.5044479E+03   -1.1039155E-02    2.5736851E+06    2.1968269E-03    2.5949511E+06
   -4.67   700.000    3.363E+02    2.5119263E+06   -3.4266600E+03   -1.1639168E-02    2.5080585E+06    2.2300096E-03    2.5281930E+06
   -4.66   700.000    3.356E+02    2.4443879E+06   -3.3044015E+03   -1.2109156E-02    2.4406135E+06    2.1799716E-03    2.4596260E+06
   -4.65   700.000    3.349E+02    2.3751023E+06   -3.1372526E+03   -1.2438850E-02    2.3714348E+06    2.0643137E-03    2.3893466E+06
   -4.64   700.000    3.342E+02    2.3041410E+06   -2.9264878E+03   -1.2624377E-02    2.3005975E+06    1.8989316E-03    2.3174416E+06
   -4.63   700.000    3.336E+02    2.2315710E+06   -2.6751419E+03   -1.2668982E-02    2.2281704E+06    1.6968387E-03    2.2439893E+06
   -4.62   700.000    3.329E+02    2.1574588E+06   -2.3879681E+03   -1.2583099E-02    2.1542196E+06    1.4678356E-03    2.1690627E+06
   -4.61   700.000    3.323E+02    2.0818766E+06   -2.0713107E+03   -1.2383697E-02    2.0788153E+06    1.2189321E-03    2.0927363E+06
   -4.60   700.000    3.317E+02    2.0049099E+06   -1.7328994E+03   -1.2092892E-02    2.0020392E+06    9.5531693E-04    2.0150935E+06
   -4.59   700.000    3.311E+02    1.9266658E+06   -1.3815584E+03   -1.1735979E-02    1.9239940E+06    6.8160194E-04    1.9362367E+06
   -4.58   700.000    3.305E+02    1.8472830E+06   -1.0268157E+03   -1.1339111E-02    1.8448128E+06    4.0305259E-04    1.8562982E+06
   -4.57   700.000    3.299E+02    1.7669406E+06   -6.7840974E+02   -1.0926941E-02    1.7646694E+06    1.2654574E-04    1.7754505E+06
   -4.56   700.000    3.294E+02    1.6858662E+06   -3.4572404E+02   -1.0520539E-02    1.6837864E+06   -1.3893800E-04    1.6939146E+06
   -4.55   700.000    3.288E+02    1.6043402E+06   -3.7208698E+01   -1.0135856E-02    1.6024398E+06   -3.8238927E-04    1.6119656E+06
   -4.54   700.000    3.283E+02    1.5226967E+06    2.4012816E+02   -9.7828811E-03    1.5209608E+06   -5.9141170E-04    1.5299328E+06
   -4.53   700.000    3.278E+02    1.4413184E+06    4.8108393E+02   -9.4655782E-03    1.4397303E+06   -7.5333139E-04    1.4481951E+06
   -4.52   700.000    3.273E+02    1.3606271E+06    6.8243299E+02   -9.1825227E-03    1.3591698E+06   -8.5659371E-04    1.3671708E+06
   -4.51   700.000    3.268E+02    1.2810704E+06    8.4290113E+02   -8.9280923E-03    1.2797277E+06   -8.9221596E-04    1.2873034E+06
   -4.50   700.000    3.264E+02    1.2031048E+06    9.6297668E+02   -8.6939898E-03    1.2018623E+06   -8.5505146E-04    1.2090459E+06
   -4.49   700.000    3.259E+02    1.1271798E+06    1.0446162E+03   -8.4708487E-03    1.1260252E+06   -7.4464975E-04    1.1328430E+06
   -4.48   700.000    3.255E+02    1.0537224E+06    1.0909072E+03   -8.2496948E-03    1.0526459E+06   -5.6556493E-04    1.0591170E+06
   -4.47   700.000    3.251E+02    9.8312505E+05    1.1057387E+03   -8.0230890E-03    9.8211921E+05   -3.2705900E-04    9.8825575E+05
   -4.46   700.000    3.247E+02    9.1573844E+05    1.0935119E+03   -7.7858571E-03    9.1479778E+05   -4.2250467E-05    9.2060483E+05
   -4.45   700.000    3.243E+02    8.5186733E+05    1.0589024E+03   -7.5353951E-03    8.5098800E+05    2.7315074E-04    8.5646478E+05
   -4.44   700.000    3.239E+02    7.9177056E+05    1.0066726E+03   -7.2716071E-03    7.9094992E+05    6.0232166E-04    7.9609106E+05
   -4.43   700.000    3.236E+02    7.3566301E+05    9.4152427E+02   -6.9965697E-03    7.3489932E+05    9.2880125E-04    7.3969647E+05
   -4.42   700.000    3.232E+02    6.8371816E+05    8.6798115E+02   -6.7140294E-03    6.8301043E+05    1.2377709E-03    6.8745409E+05
   -4.41   700.000    3.228E+02    6.3607015E+05    7.9029353E+02   -6.4288244E-03    6.3541808E+05    1.5170076E-03    6.3949945E+05
   -4.40   700.000    3.225E+02    5.9281437E+05    7.1235862E+02   -6.1462973E-03    5.9221838E+05    1.7574496E-03    5.9593112E+05
   -4.39   700.000    3.221E+02    5.5400634E+05    6.3765415E+02   -5.8717411E-03    5.5346762E+05    1.9533828E-03    5.5680933E+05
   -4.38   700.000    3.217E+02    5.1965909E+05    5.6918359E+02   -5.6099069E-03    5.1917964E+05    2.1023072E-03    5.2215284E+05
   -4.37   700.000    3.214E+02    4.8973963E+05    5.0943287E+02   -5.3645902E-03    4.8932215E+05    2.2045702E-03    4.9193475E+05
   -4.36   700.000    3.210E+02    4.6416517E+05    4.6033882E+02   -5.1383161E-03    4.6381288E+05    2.2628569E-03    4.6607798E+05
   -4.35   700.000    3.206E+02    4.4279986E+05    4.2327027E+02   -4.9321382E-03    4.4251626E+05    2.2816193E-03    4.4445137E+05
   -4.34   700.000    3.202E+02    4.2545286E+05    3.9902250E+02   -4.7455633E-03    4.2524138E+05    2.2665057E-03    4.2686716E+05
   -4.33   700.000    3.197E+02    4.1187818E+05    3.8782570E+02   -4.5766005E-03    4.1174198E+05    2.2238376E-03    4.1308063E+05
   -4.32   700.000    3.193E+02    4.0177703E+05    3.8936784E+02   -4.4219188E-03    4.0171876E+05    2.1601619E-03    4.0279241E+05
   -4.31   700.000    3.188E+02    3.9480257E+05    4.0283272E+02   -4.2770847E-03    3.9482444E+05    2.0818951E-03    3.9565366E+05
   -4.30   700.000    3.182E+02    3.9056748E+05    4.2695423E+02   -4.1368416E-03    3.9067129E+05    1.9950639E-03    3.9127409E+05
   -4.29   700.000    3.176E+02    3.8865375E+05    4.6008815E+02   -3.9954007E-03    3.8884115E+05    1.9051376E-03    3.8923244E+05
   -4.28   700.000    3.170E+02    3.8862442E+05    5.0030250E+02   -3.8467215E-03    3.8889707E+05    1.8169362E-03    3.8908883E+05
   -4.27   700.000    3.163E+02    3.9003649E+05    5.4548584E+02   -3.6847808E-03    3.9039618E+05    1.7345952E-03    3.9039816E+05
   -4.26   700.000    3.156E+02    3.9245436E+05    5.9346952E+02   -3.5038405E-03    3.9290284E+05    1.6615656E-03    3.9272380E+05
   -4.25   700.000    3.148E+02    3.9546294E+05    6.4215566E+02   -3.2987323E-03    3.9600151E+05    1.6006286E-03    3.9565063E+05
   -4.24   700.000    3.138E+02    3.9867981E+05    6.8963796E+02   -3.0651679E-03    3.9930867E+05    1.5539129E-03    3.9879699E+05
   -4.23   700.000    3.129E+02    4.0176579E+05    7.3429976E+02   -2.8000652E-03    4.0248325E+05    1.5229095E-03    4.0182478E+05
   -4.22   700.000    3.118E+02    4.0443344E+05    7.7487447E+02   -2.5018571E-03    4.0523510E+05    1.5084831E-03    4.0444746E+05
   -4.21   700.000    3.106E+02    4.0645306E+05    8.1045895E+02   -2.1707345E-03    4.0733116E+05    1.5108844E-03    4.0643561E+05
   -4.20   700.000    3.093E+02    4.0765581E+05    8.4048053E+02   -1.8087706E-03    4.0859890E+05    1.5297634E-03    4.0761973E+05
   -4.19   700.000    3.079E+02    4.0793395E+05    8.6462855E+02   -1.4198907E-03    4.0892685E+05    1.5641832E-03    4.0789030E+05
   -4.18   700.000    3.063E+02    4.0723805E+05    8.8277054E+02   -1.0096799E-03    4.0826221E+05    1.6126322E-03    4.0719508E+05
   -4.17   700.000    3.046E+02    4.0557150E+05    8.9487509E+02   -5.8505453E-04    4.0660574E+05    1.6730352E-03    4.0553379E+05
   -4.16   700.000    3.028E+02    4.0298301E+05    9.0095918E+02   -1.5384947E-04    4.0400442E+05    1.7427709E-03    4.0295094E+05
   -4.15   700.000    3.008E+02    3.9955777E+05    9.0106795E+02    2.7561484E-04    4.0054277E+05    1.8187076E-03    3.9952725E+05
   -4.14   700.000    2.987E+02    3.9540830E+05    8.9528368E+02    6.9493144E-04    3.9633372E+05    1.8972743E-03    3.9537081E+05
   -4.13   700.000    2.965E+02    3.9066603E+05    8.8375221E+02    1.0959381E-03    3.9151010E+05    1.9745794E-03    3.9060886E+05
   -4.12   700.000    2.941E+02    3.8547430E+05    8.6671135E+02    1.4709762E-03    3.8621744E+05    2.0465820E-03    3.8538092E+05
   -4.11   700.000    2.915E+02    3.7998334E+05    8.4450761E+02    1.8130951E-03    3.8060873E+05    2.1093106E-03    3.7983379E+05
   -4.10   700.000    2.889E+02    3.7434725E+05    8.1759259E+02    2.1162317E-03    3.7484109E+05    2.1591110E-03    3.7411850E+05
   -4.09   700.000    2.860E+02    3.6872252E+05    7.8649642E+02    2.3753901E-03    3.6907396E+05    2.1929009E-03    3.6838877E+05
   -4.08   700.000    2.831E+02    3.6326741E+05    7.5178098E+02    2.5868297E-03    3.6346828E+05    2.2084053E-03    3.6280040E+05
   -4.07   700.000    2.800E+02    3.5814142E+05    7.1397824E+02    2.7482509E-03    3.5818571E+05    2.2043443E-03    3.5751071E+05
   -4.06   700.000    2.768E+02    3.5350394E+05    6.7352052E+02    2.8589506E-03    3.5338712E+05    2.1805547E-03    3.5267720E+05
   -4.05   700.000    2.735E+02    3.4951154E+05    6.3066906E+02    2.9199104E-03    3.4922996E+05    2.1380247E-03    3.4845508E+05
   -4.04   700.000    2.701E+02    3.4631397E+05    5.8544735E+02    2.9337914E-03    3.4586422E+05    2.0788339E-03    3.4499331E+05
   -4.03   700.000    2.666E+02    3.4404890E+05    5.3758574E+02    2.9048176E-03    3.4342732E+05    2.0059939E-03    3.4242961E+05
   -4.02   700.000    2.630E+02    3.4283636E+05    4.8648443E+02    2.8385539E-03    3.4203874E+05    1.9231975E-03    3.4088507E+05
   -4.01   700.000    2.593E+02    3.4277357E+05    4.3120195E+02    2.7415963E-03    3.4179505E+05    1.8344927E-03    3.4045926E+05
   -4.00   700.000    2.556E+02    3.4393140E+05    3.7047541E+02    2.6212054E-03    3.4276655E+05    1.7439113E-03    3.4122675E+05
   -3.99   700.000    2.518E+02    3.4635290E+05    3.0277595E+02    2.4849131E-03    3.4499597E+05    1.6550892E-03    3.4323574E+05
   -3.98   700.000    2.480E+02    3.5005450E+05    2.2639917E+02    2.3401358E-03    3.4849985E+05    1.5709219E-03    3.4650913E+05
   -3.97   700.000    2.441E+02    3.5502977E+05    1.3958540E+02    2.1938195E-03    3.5327228E+05    1.4933007E-03    3.5104800E+05
   -3.96   700.000    2.402E+02    3.6125515E+05    4.0660323E+01    2.0521426E-03    3.5929074E+05    1.4229663E-03    3.5683698E+05
   -3.95   700.000    2.363E+02    3.6869708E+05   -7.1816374E+01    1.9202967E-03    3.6652317E+05    1.3595016E-03    3.6385083E+05
   -3.94   700.000    2.323E+02    3.7731959E+05   -1.9890769E+02    1.8023618E-03    3.7493554E+05    1.3014675E-03    3.7206156E+05
   -3.93   700.000    2.283E+02    3.8709153E+05   -3.4117278E+02    1.7012839E-03    3.8449904E+05    1.2466591E-03    3.8144519E+05
   -3.92   700.000    2.242E+02    3.9799284E+05   -4.9856475E+02    1.6189481E-03    3.9519630E+05    1.1924410E-03    3.9198774E+05
   -3.91   700.000    2.202E+02    4.1001926E+05   -6.7035518E+02    1.5563256E-03    4.0702611E+05    1.1361053E-03    4.0368982E+05
   -3.90   700.000    2.162E+02    4.2318529E+05   -8.5508357E+02    1.5136598E-03    4.2000621E+05    1.0751936E-03    4.1656960E+05
   -3.89   700.000    2.121E+02    4.3752506E+05   -1.0505274E+03    1.4906494E-03    4.3417418E+05    1.0077327E-03    4.3066392E+05
   -3.88   700.000    2.081E+02    4.5309120E+05   -1.2536900E+03    1.4865947E-03    4.4958601E+05    9.3235712E-04    4.4602731E+05
   -3.87   700.000    2.040E+02    4.6995157E+05   -1.4608073E+03    1.5004908E-03    4.6631271E+05    8.4831354E-04    4.6272898E+05
   -3.86   700.000    2.001E+02    4.8818395E+05   -1.6673802E+03    1.5310736E-03    4.8443465E+05    7.5537570E-04    4.8084757E+05
   -3.85   700.000    1.961E+02    5.0786893E+05   -1.8682458E+03    1.5768479E-03    5.0403421E+05    6.5371232E-04    5.0046402E+05
   -3.84   700.000    1.922E+02    5.2908120E+05   -2.0576996E+03    1.6361339E-03    5.2518686E+05    5.4376174E-04    5.2165283E+05
   -3.83   700.000    1.884E+02    5.5188002E+05   -2.2296816E+03    1.7071609E-03    5.4795148E+05    4.2615991E-04    5.4447227E+05
   -3.82   700.000    1.846E+02    5.7629964E+05   -2.3780292E+03    1.7882161E-03    5.7236075E+05    3.0175109E-04    5.6895467E+05
   -3.81   700.000    1.809E+02    6.0234074E+05   -2.4967888E+03    1.8778303E-03    5.9841275E+05    1.7168556E-04    5.9509767E+05
   -3.80   700.000    1.774E+02    6.2996402E+05   -2.5805666E+03    1.9749583E-03    6.2606475E+05    3.7583039E-05    6.2285773E+05
   -3.79   700.000    1.739E+02    6.5908671E+05   -2.6248902E+03    2.0791084E-03    6.5523012E+05   -9.8281601E-05    6.5214674E+05
   -3.78   700.000    1.706E+02    6.8958258E+05   -2.6265442E+03    2.1903743E-03    6.8577867E+05   -2.3282568E-04    6.8283213E+05
   -3.77   700.000    1.674E+02    7.2128530E+05   -2.5838485E+03    2.3093477E-03    7.1754045E+05   -3.6209440E-04    7.1474062E+05
   -3.76   700.000    1.643E+02    7.5399474E+05   -2.4968469E+03    2.4369027E-03    7.5031230E+05   -4.8132662E-04    7.4766484E+05
   -3.75   700.000    1.613E+02    7.8748572E+05   -2.3673920E+03    2.5738719E-03    7.8386682E+05   -5.8516780E-04    7.8137251E+05
   -3.74   700.000    1.585E+02    8.2151850E+05   -2.1991181E+03    2.7206422E-03    8.1796295E+05   -6.6801802E-04    8.1561742E+05
   -3.73   700.000    1.559E+02    8.5585101E+05   -1.9973118E+03    2.8767207E-03    8.5235816E+05   -7.2447505E-04    8.5015194E+05
   -3.72   700.000    1.534E+02    8.9025235E+05   -1.7686941E+03    3.0403251E-03    8.8682189E+05   -7.4981547E-04    8.8474080E+05
   -3.71   700.000    1.510E+02    9.2451725E+05   -1.5211352E+03    3.2080635E-03    9.2114988E+05   -7.4045377E-04    9.1917562E+05
   -3.70   700.000    1.488E+02    9.5848014E+05   -1.2633203E+03    3.3747662E-03    9.5517817E+05   -6.9433053E-04    9.5328894E+05
   -3.69   700.000    1.467E+02    9.9202691E+05   -1.0043785E+03    3.5335165E-03    9.8879477E+05   -6.1120176E-04    9.8696578E+05
   -3.68   700.000    1.447E+02    1.0251015E+06   -7.5348913E+02    3.6759014E-03    1.0219463E+06   -4.9282202E-04    1.0201500E+06
   -3.67   700.000    1.429E+02    1.0577051E+06   -5.1947388E+02    3.7924633E-03    1.0546370E+06   -3.4302871E-04    1.0528431E+06
   -3.66   700.000    1.412E+02    1.0898856E+06   -3.1039315E+02    3.8732936E-03    1.0869181E+06   -1.6773740E-04    1.0850936E+06
   -3.65   700.000    1.396E+02    1.1217194E+06   -1.3316863E+02    3.9086812E-03    1.1188693E+06    2.5148614E-05    1.1169782E+06
   -3.64   700.000    1.381E+02    1.1532863E+06    6.7336487E+00    3.8897186E-03    1.1505739E+06    2.2592340E-04    1.1485772E+06
   -3.63   700.000    1.367E+02    1.1846458E+06    1.0551888E+02    3.8087852E-03    1.1820930E+06    4.2337776E-04    1.1799497E+06
   -3.62   700.000    1.354E+02    1.2158165E+06    1.6113258E+02    3.6598660E-03    1.2134462E+06    6.0523652E-04    1.2111137E+06
   -3.61   700.000    1.342E+02    1.2467685E+06    1.7314284E+02    3.4387110E-03    1.2446023E+06    7.5875175E-04    1.2420379E+06
   -3.60   700.000    1.330E+02    1.2774278E+06    1.4241291E+02    3.1428834E-03    1.2754833E+06    8.7145308E-04    1.2726458E+06
   -3.59   700.000    1.319E+02    1.3076939E+06    7.0574131E+01    2.7717684E-03    1.3059821E+06    9.3202761E-04    1.3028334E+06
   -3.58   700.000    1.309E+02    1.3374650E+06   -4.0643532E+01    2.3266141E-03    1.3359880E+06    9.3126662E-04    1.3324943E+06
   -3.57   700.000    1.299E+02    1.3666633E+06   -1.9011407E+02    1.8106501E-03    1.3654120E+06    8.6297840E-04    1.3615456E+06
   -3.56   700.000    1.289E+02    1.3952531E+06   -3.7789851E+02    1.2292853E-03    1.3942056E+06    7.2473955E-04    1.3899451E+06
   -3.55   700.000    1.280E+02    1.4232436E+06   -6.0554069E+02    5.9033628E-04    1.4223644E+06    5.1834999E-04    1.4176960E+06
   -3.54   700.000    1.271E+02    1.4506760E+06   -8.7593439E+02   -9.5798709E-05    1.4499163E+06    2.4987934E-04    1.4448340E+06
   -3.53   700.000    1.262E+02    1.4775952E+06   -1.1926934E+03   -8.1612617E-04    1.4768938E+06   -7.0755835E-05    1.4714002E+06
   -3.52   700.000    1.253E+02    1.5040147E+06   -1.5590668E+03   -1.5552979E-03    1.5033002E+06   -4.3067163E-04    1.4974073E+06
   -3.51   700.000    1.245E+02    1.5298821E+06   -1.9765666E+03   -2.2961621E-03    1.5290758E+06   -8.1526169E-04    1.5228061E+06
   -3.50   700.000    1.236E+02    1.5550555E+06   -2.4435816E+03   -3.0206203E-03    1.5540752E+06   -1.2096481E-03    1.5474627E+06
   -3.49   700.000    1.228E+02    1.5792963E+06   -2.9543109E+03   -3.7107197E-03    1.5780609E+06   -1.6001374E-03    1.5711522E+06
   -3.48   700.000    1.220E+02    1.6022809E+06   -3.4983245E+03   -4.3498443E-03    1.6007144E+06   -1.9754729E-03    1.5935694E+06
   -3.47   700.000    1.212E+02    1.6236288E+06   -4.0609581E+03   -4.9238358E-03    1.6216647E+06   -2.3277061E-03    1.6143562E+06
   -3.46   700.000    1.204E+02    1.6429414E+06   -4.6245667E+03   -5.4218677E-03    1.6405260E+06   -2.6525711E-03    1.6331383E+06
   -3.45   700.000    1.195E+02    1.6598439E+06   -5.1704667E+03   -5.8369325E-03    1.6569386E+06   -2.9493266E-03    1.6495651E+06
   -3.44   700.000    1.187E+02    1.6740230E+06   -5.6812289E+03   -6.1658743E-03    1.6706051E+06   -3.2201194E-03    1.6633447E+06
   -3.43   700.000    1.179E+02    1.6852539E+06   -6.1429037E+03   -6.4089778E-03    1.6813162E+06   -3.4689963E-03    1.6742687E+06
   -3.42   700.000    1.170E+02    1.6934139E+06   -6.5467862E+03   -6.5692119E-03    1.6889630E+06   -3.7007424E-03    1.6822251E+06
   -3.41   700.000    1.162E+02    1.6984823E+06   -6.8904368E+03   -6.6512767E-03    1.6935365E+06   -3.9197435E-03    1.6871969E+06
   -3.40   700.000    1.153E+02    1.7005276E+06   -7.1778280E+03   -6.6606286E-03    1.6951139E+06   -4.1290511E-03    1.6892503E+06
   -3.39   700.000    1.145E+02    1.6996869E+06   -7.4186297E+03   -6.6026412E-03    1.6938389E+06   -4.3297905E-03    1.6885151E+06
   -3.38   700.000    1.136E+02    1.6961427E+06   -7.6267548E+03   -6.4820206E-03    1.6898980E+06   -4.5209828E-03    1.6851628E+06
   -3.37   700.000    1.127E+02    1.6901006E+06   -7.8183506E+03   -6.3025389E-03    1.6834998E+06   -4.6997752E-03    1.6793861E+06
   -3.36   700.000    1.118E+02    1.6817736E+06   -8.0094603E+03   -6.0670849E-03    1.6748588E+06   -4.8619999E-03    1.6713847E+06
   -3.35   700.000    1.109E+02    1.6713742E+06   -8.2136140E+03   -5.7779852E-03    1.6641895E+06   -5.0029159E-03    1.6613587E+06
   -3.34   700.000    1.100E+02    1.6591155E+06   -8.4396395E+03   -5.4374958E-03    1.6517067E+06   -5.1179619E-03    1.6495103E+06
   -3.33   700.000    1.090E+02    1.6452182E+06   -8.6900038E+03   -5.0483476E-03    1.6376335E+06   -5.2033548E-03    1.6360517E+06
   -3.32   700.000    1.081E+02    1.6299221E+06   -8.9599811E+03   -4.6142148E-03    1.6222120E+06   -5.2564209E-03    1.6212158E+06
   -3.31   700.000    1.071E+02    1.6134949E+06   -9.2378614E+03   -4.1399977E-03    1.6057124E+06   -5.2756240E-03    1.6052654E+06
   -3.30   700.000    1.061E+02    1.5962377E+06   -9.5062537E+03   -3.6318496E-03    1.5884374E+06   -5.2603383E-03    1.5884981E+06
   -3.29   700.000    1.052E+02    1.5784818E+06   -9.7443313E+03   -3.0969339E-03    1.5707184E+06   -5.2104762E-03    1.5712426E+06
   -3.28   700.000    1.042E+02    1.5605768E+06   -9.9306517E+03   -2.5429608E-03    1.5529032E+06   -5.1261060E-03    1.5538468E+06
   -3.27   700.000    1.032E+02    1.5428709E+06   -1.0046040E+04   -1.9776043E-03    1.5353358E+06   -5.0071829E-03    1.5366572E+06
   -3.26   700.000    1.022E+02    1.5256846E+06   -1.0076011E+04   -1.4079369E-03    1.5183306E+06   -4.8534674E-03    1.5199933E+06
   -3.25   700.000    1.012E+02    1.5092831E+06   -1.0012322E+04   -8.4001729E-04    1.5021444E+06   -4.6646494E-03    1.5041188E+06
   -3.24   700.000    1.002E+02    1.4938492E+06   -9.8534809E+03   -2.7873873E-04    1.4869505E+06   -4.4406452E-03    1.4892150E+06
   -3.23   700.000    9.914E+01    1.4794626E+06   -9.6042757E+03    2.7201660E-04    1.4728191E+06   -4.1819916E-03    1.4753592E+06
   -3.22   700.000    9.811E+01    1.4660895E+06   -9.2746012E+03    8.0894670E-04    1.4597064E+06   -3.8902524E-03    1.4625134E+06
   -3.21   700.000    9.708E+01    1.4535824E+06   -8.8779343E+03    1.3287256E-03    1.4474567E+06   -3.5683451E-03    1.4505239E+06
   -3.20   700.000    9.604E+01    1.4416945E+06   -8.4298035E+03    1.8273794E-03    1.4358156E+06   -3.2207138E-03    1.4391354E+06
   -3.19   700.000    9.500E+01    1.4301049E+06   -7.9464873E+03    2.2998103E-03    1.4244561E+06   -2.8532933E-03    1.4280157E+06
   -3.18   700.000    9.395E+01    1.4184531E+06   -7.4440469E+03    2.7396066E-03    1.4130124E+06   -2.4732448E-03    1.4167914E+06
   -3.17   700.000    9.290E+01    1.4063782E+06   -6.9376840E+03    3.1392164E-03    1.4011194E+06   -2.0884767E-03    1.4050882E+06
   -3.16   700.000    9.183E+01    1.3935587E+06   -6.4413439E+03    3.4904801E-03    1.3884515E+06   -1.7070084E-03    1.3925719E+06
   -3.15   700.000    9.076E+01    1.3797470E+06   -5.9674745E+03    3.7854384E-03    1.3747580E+06   -1.3362692E-03    1.3789852E+06
   -3.14   700.000    8.967E+01    1.3647963E+06   -5.5268642E+03    4.0172720E-03    1.3598888E+06   -9.8244209E-04    1.3641758E+06
   -3.13   700.000    8.857E+01    1.3486762E+06   -5.1285250E+03    4.1812019E-03    1.3438107E+06   -6.4996400E-04    1.3481125E+06
   -3.12   700.000    8.745E+01    1.3314760E+06   -4.7796043E+03    4.2751793E-03    1.3266107E+06   -3.4126386E-04    1.3308892E+06
   -3.11   700.000    8.632E+01    1.3133964E+06   -4.4853248E+03    4.3002370E-03    1.3084875E+06   -5.6775854E-05    1.3127157E+06
   -3.10   700.000    8.516E+01    1.2947314E+06   -4.2489425E+03    4.2604295E-03    1.2897332E+06    2.0478934E-04    1.2938980E+06
   -3.09   700.000    8.398E+01    1.2758415E+06   -4.0717074E+03    4.1623672E-03    1.2707066E+06    4.4597958E-04    1.2748096E+06
   -3.08   700.000    8.277E+01    1.2571231E+06   -3.9528162E+03    4.0144205E-03    1.2518025E+06    6.7003490E-04    1.2558597E+06
   -3.07   700.000    8.153E+01    1.2389761E+06   -3.8893540E+03    3.8257240E-03    1.2334190E+06    8.8031619E-04    1.2374588E+06
   -3.06   700.000    8.026E+01    1.2217744E+06   -3.8762541E+03    3.6051410E-03    1.2159289E+06    1.0798057E-03    1.2199886E+06
   -3.05   700.000    7.895E+01    1.2058413E+06   -3.9063185E+03    3.3603412E-03    1.1996551E+06    1.2707234E-03    1.2037771E+06
   -3.04   700.000    7.760E+01    1.1914338E+06   -3.9703623E+03    3.0971146E-03    1.1848552E+06    1.4542682E-03    1.1890830E+06
   -3.03   700.000    7.621E+01    1.1787352E+06   -4.0575373E+03    2.8189912E-03    1.1717154E+06    1.6304665E-03    1.1760885E+06
   -3.02   700.000    7.477E+01    1.1678578E+06   -4.1558676E+03    2.5271836E-03    1.1603532E+06    1.7981015E-03    1.1649035E+06
   -3.01   700.000    7.328E+01    1.1588529E+06   -4.2529923E+03    2.2208184E-03    1.1508281E+06    1.9547051E-03    1.1555757E+06
   -3.00   700.000    7.173E+01    1.1517272E+06   -4.3370573E+03    1.8973932E-03    1.1431581E+06    2.0966083E-03    1.1481083E+06
   -2.99   700.000    7.013E+01    1.1464606E+06   -4.3976546E+03    1.5533749E-03    1.1373378E+06    2.2190719E-03    1.1424782E+06
   -2.98   700.000    6.848E+01    1.1430240E+06   -4.4266746E+03    1.1848578E-03    1.1333548E+06    2.3165196E-03    1.1386542E+06
   -2.97   700.000    6.677E+01    1.1413927E+06   -4.4189402E+03    7.8820521E-04    1.1312030E+06    2.3828957E-03    1.1366108E+06
   -2.96   700.000    6.500E+01    1.1415542E+06   -4.3725206E+03    3.6061656E-04    1.1308894E+06    2.4121370E-03    1.1363364E+06
   -2.95   700.000    6.317E+01    1.1435101E+06   -4.2886787E+03   -9.9421984E-05    1.1324336E+06    2.3987185E-03    1.1378339E+06
   -2.94   700.000    6.129E+01    1.1472714E+06   -4.1714691E+03   -5.9182718E-04    1.1358627E+06    2.3381960E-03    1.1411162E+06
   -2.93   700.000    5.936E+01    1.1528487E+06   -4.0270588E+03   -1.1147536E-03    1.1411995E+06    2.2276562E-03    1.1461957E+06
   -2.92   700.000    5.738E+01    1.1602396E+06   -3.8628718E+03   -1.6645651E-03    1.1484487E+06    2.0659871E-03    1.1530709E+06
   -2.91   700.000    5.535E+01    1.1694137E+06   -3.6866724E+03   -2.2359211E-03    1.1575819E+06    1.8539151E-03    1.1617116E+06
   -2.90   700.000    5.329E+01    1.1802989E+06   -3.5056934E+03   -2.8219509E-03    1.1685231E+06    1.5937963E-03    1.1720446E+06
   -2.89   700.000    5.121E+01    1.1927696E+06   -3.3258992E+03   -3.4144838E-03    1.1811378E+06    1.2892021E-03    1.1839426E+06
   -2.88   700.000    4.910E+01    1.2066381E+06   -3.1514529E+03   -4.0043074E-03    1.1952255E+06    9.4438233E-04    1.1972166E+06
   -2.87   700.000    4.699E+01    1.2216521E+06   -2.9844347E+03   -4.5814298E-03    1.2105184E+06    5.6371372E-04    1.2116137E+06
   -2.86   700.000    4.487E+01    1.2374975E+06   -2.8248282E+03   -5.1353346E-03    1.2266861E+06    1.5124676E-04    1.2268216E+06
   -2.85   700.000    4.277E+01    1.2538074E+06   -2.6707661E+03   -5.6552293E-03    1.2433463E+06   -2.8955545E-04    1.2424784E+06
   -2.84   700.000    4.069E+01    1.2701763E+06   -2.5189913E+03   -6.1303021E-03    1.2600803E+06   -7.5582879E-04    1.2581879E+06
   -2.83   700.000    3.865E+01    1.2861788E+06   -2.3654723E+03   -6.5500128E-03    1.2764523E+06   -1.2450595E-03    1.2735379E+06
   -2.82   700.000    3.665E+01    1.3013889E+06   -2.2060949E+03   -6.9044423E-03    1.2920301E+06   -1.7546137E-03    1.2881204E+06
   -2.81   700.000    3.470E+01    1.3154001E+06   -2.0373549E+03   -7.1847152E-03    1.3064040E+06   -2.2811296E-03    1.3015505E+06
   -2.80   700.000    3.282E+01    1.3278418E+06   -1.8569848E+03   -7.3834882E-03    1.3192034E+06   -2.8198876E-03    1.3134817E+06
   -2.79   700.000    3.100E+01    1.3383920E+06   -1.6644588E+03   -7.4954666E-03    1.3301086E+06   -3.3642959E-03    1.3236171E+06
   -2.78   700.000    2.925E+01    1.3467850E+06   -1.4613274E+03   -7.5178911E-03    1.3388577E+06   -3.9056226E-03    1.3317153E+06
   -2.77   700.000    2.758E+01    1.3528142E+06   -1.2513410E+03   -7.4509199E-03    1.3452479E+06   -4.4330791E-03    1.3375907E+06
   -2.76   700.000    2.599E+01    1.3563294E+06   -1.0403277E+03   -7.2978382E-03    1.3491327E+06   -4.9343111E-03    1.3411101E+06
   -2.75   700.000    2.448E+01    1.3572321E+06   -8.3580814E+02   -7.0650481E-03    1.3504159E+06   -5.3962802E-03    1.3421857E+06
   -2.74   700.000    2.305E+01    1.3554676E+06   -6.4636031E+02   -6.7618233E-03    1.3490433E+06   -5.8064488E-03    1.3407664E+06
   -2.73   700.000    2.170E+01    1.3510169E+06   -4.8078810E+02   -6.3998472E-03    1.3449942E+06   -6.1541105E-03    1.3368295E+06
   -2.72   700.000    2.043E+01    1.3438894E+06   -3.4719047E+02   -5.9925797E-03    1.3382746E+06   -6.4316665E-03    1.3303735E+06
   -2.71   700.000    1.923E+01    1.3341183E+06   -2.5206106E+02   -5.5545116E-03    1.3289116E+06   -6.6356386E-03    1.3214139E+06
   -2.70   700.000    1.810E+01    1.3217584E+06   -1.9955607E+02   -5.1003687E-03    1.3169526E+06   -6.7672407E-03    1.3099822E+06
   -2.69   700.000    1.704E+01    1.3068869E+06   -1.9104432E+02   -4.6443183E-03    1.3024663E+06   -6.8323921E-03    1.2961283E+06
   -2.68   700.000    1.604E+01    1.2896068E+06   -2.2499955E+02   -4.1992263E-03    1.2855466E+06   -6.8411408E-03    1.2799251E+06
   -2.67   700.000    1.511E+01    1.2700502E+06   -2.9722632E+02   -3.7760066E-03    1.2663170E+06   -6.8065581E-03    1.2614740E+06
   -2.66   700.000    1.423E+01    1.2483805E+06   -4.0134864E+02   -3.3831054E-03    1.2449333E+06   -6.7432404E-03    1.2409081E+06
   -2.65   700.000    1.340E+01    1.2247908E+06   -5.2945526E+02   -3.0261633E-03    1.2215826E+06   -6.6656156E-03    1.2183926E+06
   -2.64   700.000    1.262E+01    1.1994983E+06   -6.7279509E+02   -2.7078935E-03    1.1964780E+06   -6.5862769E-03    1.1941201E+06
   -2.63   700.000    1.189E+01    1.1727333E+06   -8.2244368E+02   -2.4282011E-03    1.1698481E+06   -6.5145649E-03    1.1683008E+06
   -2.62   700.000    1.121E+01    1.1447246E+06   -9.6989782E+02   -2.1845465E-03    1.1419222E+06   -6.4555850E-03    1.1411489E+06
   -2.61   700.000    1.056E+01    1.1156842E+06   -1.1075819E+03   -1.9725235E-03    1.1129145E+06   -6.4097891E-03    1.1128669E+06
   -2.60   700.000    9.950E+00    1.0857923E+06   -1.2292579E+03   -1.7865997E-03    1.0830094E+06   -6.3731782E-03    1.0836319E+06
   -2.59   700.000    9.374E+00    1.0551876E+06   -1.3303225E+03   -1.6209433E-03    1.0523509E+06   -6.3380968E-03    1.0535838E+06
   -2.58   700.000    8.831E+00    1.0239629E+06   -1.4079641E+03   -1.4702447E-03    1.0210379E+06   -6.2945088E-03    1.0228213E+06
   -2.57   700.000    8.317E+00    9.9216739E+05   -1.4611473E+03   -1.3304391E-03    9.8912627E+05   -6.2315784E-03    9.9140203E+05
   -2.56   700.000    7.832E+00    9.5981425E+05   -1.4904103E+03   -1.1992292E-03    9.5663572E+05   -6.1393274E-03    9.5934975E+05
   -2.55   700.000    7.373E+00    9.2689242E+05   -1.4974878E+03   -1.0763226E-03    9.2356166E+05   -6.0101328E-03    9.2666408E+05
   -2.54   700.000    6.938E+00    8.9337939E+05   -1.4848116E+03   -9.6332633E-04    8.8988793E+05   -5.8398495E-03    8.9333278E+05
   -2.53   700.000    6.527E+00    8.5925366E+05   -1.4549792E+03   -8.6329107E-04    8.5559933E+05   -5.6284066E-03    8.5934353E+05
   -2.52   700.000    6.137E+00    8.2450552E+05   -1.4102941E+03   -7.7996854E-04    8.2069255E+05   -5.3798145E-03    8.2469442E+05
   -2.51   700.000    5.767E+00    7.8914525E+05   -1.3524743E+03   -7.1691441E-04    7.8518444E+05   -5.1016157E-03    7.8940226E+05
   -2.50   700.000    5.417E+00    7.5320902E+05   -1.2825833E+03   -6.7661322E-04    7.4911777E+05   -4.8038968E-03    7.5350849E+05
   -2.49   700.000    5.085E+00    7.1676210E+05   -1.2011819E+03   -6.5980574E-04    7.1256418E+05   -4.4980363E-03    7.1708272E+05
   -2.48   700.000    4.771E+00    6.7989984E+05   -1.1086399E+03   -6.6515183E-04    6.7562472E+05   -4.1953826E-03    6.8022379E+05
   -2.47   700.000    4.474E+00    6.4274630E+05   -1.0055074E+03   -6.8928060E-04    6.3842800E+05   -3.9060455E-03    6.4305862E+05
   -2.46   700.000    4.193E+00    6.0545086E+05   -8.9284055E+02   -7.2718789E-04    6.0112638E+05   -3.6379455E-03    6.0573890E+05
   -2.45   700.000    3.928E+00    5.6818314E+05   -7.7239956E+02   -7.7286990E-04    5.6389069E+05   -3.3962194E-03    5.6843630E+05
   -2.44   700.000    3.677E+00    5.3112707E+05   -6.4667963E+02   -8.2004874E-04    5.2690424E+05   -3.1830167E-03    5.3133659E+05
   -2.43   700.000    3.441E+00    4.9447460E+05   -5.1878296E+02   -8.6285514E-04    4.9035680E+05   -2.9976712E-03    4.9463365E+05
   -2.42   700.000    3.220E+00    4.5842004E+05   -3.9217319E+02   -8.9637126E-04    4.5443921E+05   -2.8371804E-03    4.5852385E+05
   -2.41   700.000    3.012E+00    4.2315509E+05   -2.7037088E+02   -9.1698596E-04    4.1933886E+05   -2.6968920E-03    4.2320121E+05
   -2.40   700.000    2.817E+00    3.8886491E+05   -1.5664871E+02   -9.2255620E-04    3.8523617E+05   -2.5712804E-03    3.8885336E+05
   -2.39   700.000    2.636E+00    3.5572485E+05   -5.3773151E+01   -9.1239616E-04    3.5230155E+05   -2.4547000E-03    3.5565811E+05
   -2.38   700.000    2.468E+00    3.2389743E+05    3.6177713E+01   -8.8712830E-04    3.2069266E+05   -2.3420233E-03    3.2378026E+05
   -2.37   700.000    2.312E+00    2.9352937E+05    1.1190794E+02   -8.4843515E-04    2.9055157E+05   -2.2291054E-03    2.9336843E+05
   -2.36   700.000    2.169E+00    2.6474847E+05    1.7291215E+02   -7.9875133E-04    2.6200168E+05   -2.1130487E-03    2.6455175E+05
   -2.35   700.000    2.037E+00    2.3766040E+05    2.1941206E+02   -7.4093478E-04    2.3514463E+05   -1.9922776E-03    2.3743660E+05
   -2.34   700.000    1.917E+00    2.1234576E+05    2.5224132E+02   -6.7795439E-04    2.1005738E+05   -1.8664518E-03    2.1210367E+05
   -2.33   700.000    1.808E+00    1.8885778E+05    2.7270003E+02   -6.1262482E-04    1.8678997E+05   -1.7362643E-03    1.8860574E+05
   -2.32   700.000    1.709E+00    1.6722102E+05    2.8239939E+02   -5.4741012E-04    1.6536430E+05   -1.6031703E-03    1.6696650E+05
   -2.31   700.000    1.620E+00    1.4743127E+05    2.8311278E+02   -4.8430487E-04    1.4577404E+05   -1.4690955E-03    1.4718063E+05
   -2.30   700.000    1.541E+00    1.2945693E+05    2.7664490E+02   -4.2478935E-04    1.2798605E+05   -1.3361584E-03    1.2921525E+05
   -2.29   700.000    1.470E+00    1.1324152E+05    2.6472624E+02   -3.6984566E-04    1.1194284E+05   -1.2064362E-03    1.1301264E+05
   -2.28   700.000    1.407E+00    9.8707309E+04    2.4893572E+02   -3.2001623E-04    9.7566168E+04   -1.0817883E-03    9.8493847E+04
   -2.27   700.000    1.352E+00    8.5759560E+04    2.3065116E+02   -2.7548560E-04    8.4761244E+04   -9.6374127E-04    8.5563106E+04
   -2.26   700.000    1.304E+00    7.4291147E+04    2.1102504E+02   -2.3616908E-04    7.3421248E+04   -8.5343389E-04    7.4112407E+04
   -2.25   700.000    1.261E+00    6.4187099E+04    1.9098088E+02   -2.0179626E-04    6.3431804E+04   -7.5160890E-04    6.4026081E+04
   -2.24   700.000    1.224E+00    5.5328820E+04    1.7122535E+02   -1.7198230E-04    5.4675121E+04   -6.5864106E-04    5.5185006E+04
   -2.23   700.000    1.192E+00    4.7597763E+04    1.5227079E+02   -1.4628413E-04    4.7033590E+04   -5.7458751E-04    4.7470261E+04
   -2.22   700.000    1.164E+00    4.0878439E+04    1.3446341E+02   -1.2424165E-04    4.0392740E+04   -4.9924888E-04    4.0766115E+04
   -2.21   700.000    1.140E+00    3.5060733E+04    1.1801339E+02   -1.0540568E-04    3.4643501E+04   -4.3223262E-04    3.4962318E+04
   -2.20   700.000    1.120E+00    3.0041552E+04    1.0302407E+02   -8.9355239E-05    2.9683809E+04   -3.7301196E-04    2.9955720E+04
   -2.19   700.000    1.102E+00    2.5725865E+04    8.9518316E+01   -7.5706935E-05    2.5419625E+04   -3.2097719E-04    2.5651297E+04
   -2.18   700.000    1.087E+00    2.2027256E+04    7.7461241E+01   -6.4118706E-05    2.1765464E+04   -2.7547759E-04    2.1962681E+04
   -2.17   700.000    1.074E+00    1.8868070E+04    6.6778793E+01   -5.4289933E-05    1.8644531E+04   -2.3585381E-04    1.8812292E+04
   -2.16   700.000    1.062E+00    1.6179264E+04    5.7372472E+01   -4.5959333E-05    1.5988566E+04   -2.0146155E-04    1.6131178E+04
   -2.15   700.000    1.053E+00    1.3900051E+04    4.9130504E+01   -3.8901646E-05    1.3737486E+04   -1.7168783E-04    1.3858650E+04
   -2.14   700.000    1.044E+00    1.1977412E+04    4.1936000E+01   -3.2923833E-05    1.1838900E+04   -1.4596101E-04    1.1941790E+04
   -2.13   700.000    1.037E+00    1.0365535E+04    3.5672668E+01   -2.7861189E-05    1.0247549E+04   -1.2375622E-04    1.0334881E+04
   -2.12   700.000    1.031E+00    9.0252340E+03    3.0228592E+01   -2.3573643E-05    8.9247343E+03   -1.0459715E-04    8.9988287E+03
   -2.11   700.000    1.026E+00    7.9233723E+03    2.5498534E+01   -1.9942375E-05    7.8377434E+03   -8.8055394E-05    7.9005801E+03
   -2.10   700.000    1.021E+00    7.0323283E+03    2.1385154E+01   -1.6866812E-05    6.9593224E+03   -7.3748015E-05    7.0125882E+03
   -2.09   700.000    1.017E+00    6.3295073E+03    1.7799458E+01   -1.4262018E-05    6.2671939E+03   -6.1334060E-05    6.3123246E+03
   -2.08   700.000    1.013E+00    5.7969189E+03    1.4660708E+01   -1.2056468E-05    5.7436403E+03   -5.0510440E-05    5.7818566E+03
   -2.07   700.000    1.010E+00    5.4208227E+03    1.1895990E+01   -1.0190182E-05    5.3751547E+03   -4.1007491E-05    5.4074934E+03
   -2.06   700.000    1.007E+00    5.1914469E+03    9.4395820E+00   -8.6132108E-06    5.1521639E+03   -3.2584466E-05    5.1795047E+03
   -2.05   700.000    1.004E+00    5.1027807E+03    7.2322049E+00   -7.2844390E-06    5.0688255E+03   -2.5025079E-05    5.0919142E+03
   -2.04   700.000    1.001E+00    5.1524413E+03    5.2202646E+00   -6.1707098E-06    5.1228988E+03   -1.8133192E-05    5.1423669E+03
   -2.03   700.000    9.988E-01    5.3416151E+03    3.3551210E+00   -5.2462701E-06    5.3156893E+03   -1.1728681E-05    5.3320708E+03
   -2.02   700.000    9.961E-01    5.6750717E+03    1.5924467E+00   -4.4925573E-06    5.6520654E+03   -5.6434974E-06    5.6658113E+03
   -2.01   700.000    9.933E-01    6.1612500E+03   -1.0828022E-01   -3.8983628E-06    6.1405476E+03    2.8209068E-07    6.1520384E+03
   -2.00   700.000    9.903E-01    6.8124141E+03   -1.7841005E+00   -3.4604327E-06    6.7934664E+03    6.2030969E-06    6.8030225E+03
   -1.99   700.000    9.871E-01    7.6448769E+03   -3.4686584E+00   -3.1845891E-06    7.6271879E+03    1.2273274E-05    7.6350792E+03
   -1.98   700.000    9.836E-01    8.6792862E+03   -5.1919771E+00   -3.0874831E-06    8.6624022E+03    1.8648462E-05    8.6688557E+03
   -1.97   700.000    9.796E-01    9.9409689E+03   -6.9798440E+00   -3.1991212E-06    9.9244685E+03    2.5489844E-05    9.9296759E+03
   -1.96   700.000    9.751E-01    1.1460321E+04   -8.8527044E+00   -3.5663363E-06    1.1443808E+04    3.2967132E-05    1.1447932E+04
   -1.95   700.000    9.699E-01    1.3273235E+04   -1.0823949E+01   -4.2573940E-06    1.3256332E+04    4.1261676E-05    1.3259513E+04
   -1.94   700.000    9.641E-01    1.5421538E+04   -1.2897472E+01   -5.3679395E-06    1.5403882E+04    5.0569507E-05    1.5406242E+04
   -1.93   700.000    9.573E-01    1.7953423E+04   -1.5064372E+01   -7.0284689E-06    1.7934661E+04    6.1104268E-05    1.7936314E+04
   -1.92   700.000    9.495E-01    2.0923834E+04   -1.7298697E+01   -9.4134543E-06    2.0903625E+04    7.3099991E-05    2.0904681E+04
   -1.91   700.000    9.404E-01    2.4394766E+04   -1.9552199E+01   -1.2752131E-05    2.4372780E+04    8.6813615E-05    2.4373352E+04
   -1.90   700.000    9.300E-01    2.8435429E+04   -2.1748122E+01   -1.7340758E-05    2.8411350E+04    1.0252708E-04    2.8411564E+04
   -1.89   700.000    9.180E-01    3.3122221E+04   -2.3774269E+01   -2.3555889E-05    3.3095747E+04    1.2054871E-04    3.3095752E+04
   -1.88   700.000    9.042E-01    3.8538442E+04   -2.5475724E+01   -3.1867806E-05    3.8509291E+04    1.4121343E-04    3.8509268E+04
   -1.87   700.000    8.884E-01    4.4773701E+04   -2.6647950E+01   -4.2852926E-05    4.4741610E+04    1.6488106E-04    4.4741783E+04
   -1.86   700.000    8.702E-01    5.1922964E+04   -2.7031200E+01   -5.7203656E-05    5.1887684E+04    1.9193166E-04    5.1888334E+04
   -1.85   700.000    8.495E-01    6.0085200E+04   -2.6307509E+01   -7.5734190E-05    6.0046485E+04    2.2275645E-04    6.0047958E+04
   -1.84   700.000    8.260E-01    6.9361631E+04   -2.4101669E+01   -9.9381216E-05    6.9319217E+04    2.5774238E-04    6.9321932E+04
   -1.83   700.000    7.994E-01    7.9853614E+04   -1.9987669E+01   -1.2919978E-04    7.9807181E+04    2.9724810E-04    7.9811636E+04
   -1.82   700.000    7.695E-01    9.1660208E+04   -1.3501889E+01   -1.6635671E-04    9.1609327E+04    3.4156909E-04    9.1616099E+04
   -1.81   700.000    7.360E-01    1.0487555E+05   -4.1640000E+00   -2.1212709E-04    1.0481961E+05    3.9088955E-04    1.0482935E+05
   -1.80   700.000    6.987E-01    1.1958614E+05    8.4940605E+00   -2.6790254E-04    1.1952430E+05    4.4521884E-04    1.1953773E+05
   -1.79   700.000    6.573E-01    1.3586833E+05    2.4891383E+01   -3.3522288E-04    1.3579937E+05    5.0431037E-04    1.3581729E+05
   -1.78   700.000    6.117E-01    1.5378594E+05    4.5354921E+01   -4.1584361E-04    1.5370825E+05    5.6756023E-04    1.5373153E+05
   -1.77   700.000    5.617E-01    1.7338857E+05    7.0072299E+01   -5.1184896E-04    1.7330003E+05    6.3388240E-04    1.7332971E+05
   -1.76   700.000    5.072E-01    1.9471042E+05    9.9044525E+01   -6.2581302E-04    1.9460840E+05    7.0155857E-04    1.9464572E+05
   -1.75   700.000    4.482E-01    2.1776999E+05    1.3204412E+02   -7.6099876E-04    2.1765133E+05    7.6806411E-04    2.1769795E+05
   -1.74   700.000    3.844E-01    2.4257061E+05    1.6858553E+02   -9.2156738E-04    2.4243164E+05    8.2988258E-04    2.4248985E+05
   -1.73   700.000    3.160E-01    2.6910156E+05    2.0791511E+02   -1.1127509E-03    2.6893827E+05    8.8233665E-04    2.6901126E+05
   -1.72   700.000    2.429E-01    2.9733979E+05    2.4902636E+02   -1.3409226E-03    2.9714784E+05    9.1948410E-04    2.9724009E+05
   -1.71   700.000    1.651E-01    3.2725136E+05    2.9070326E+02   -1.6134919E-03    3.2702634E+05    9.3414424E-04    3.2714394E+05
   -1.70   700.000    8.265E-02    3.5879251E+05    3.3158952E+02   -1.9385531E-03    3.5853008E+05    9.1812455E-04    3.5868108E+05
   -1.69   700.000   -4.346E-03    3.9190961E+05    3.7027693E+02   -2.3242475E-03    3.9160575E+05    8.6270214E-04    3.9180037E+05
   -1.68   700.000   -9.584E-02    4.2653800E+05    4.0540212E+02   -2.7778399E-03    4.2618923E+05    7.5937564E-04    4.2643996E+05
   -1.67   700.000   -1.918E-01    4.6259986E+05    4.3573943E+02   -3.3045745E-03    4.6220344E+05    6.0084683E-04    4.6252500E+05
   -1.66   700.000   -2.921E-01    5.0000177E+05    4.6027805E+02   -3.9064322E-03    4.9955594E+05    3.8213004E-04    4.9996496E+05
   -1.65   700.000   -3.966E-01    5.3863295E+05    4.7827399E+02   -4.5809617E-03    5.3813699E+05    1.0163700E-04    5.3865174E+05
   -1.64   700.000   -5.054E-01    5.7836518E+05    4.8927033E+02   -5.3203754E-03    5.7781943E+05   -2.3794013E-04    5.7845925E+05
   -1.63   700.000   -6.182E-01    6.1905523E+05    4.9308308E+02   -6.1110885E-03    6.1846086E+05   -6.2911561E-04    6.1924571E+05
   -1.62   700.000   -7.351E-01    6.6055010E+05    4.8975365E+02   -6.9338421E-03    6.5990873E+05   -1.0595936E-03    6.6085867E+05
   -1.61   700.000   -8.560E-01    7.0269472E+05    4.7947444E+02   -7.7644834E-03    7.0200784E+05   -1.5128103E-03    7.0314247E+05
   -1.60   700.000   -9.806E-01    7.4534099E+05    4.6249993E+02   -8.5753978E-03    7.4460914E+05   -1.9690211E-03    7.4594713E+05
   -1.59   700.000   -1.109E+00    7.8835631E+05    4.3906207E+02   -9.3375005E-03    7.8757829E+05   -2.4068482E-03    7.8913686E+05
   -1.58   700.000   -1.241E+00    8.3162984E+05    4.0931285E+02   -1.0022610E-02    8.3080188E+05   -2.8051340E-03    8.3259628E+05
   -1.57   700.000   -1.377E+00    8.7507434E+05    3.7331563E+02   -1.0605948E-02    8.7418952E+05   -3.1448974E-03    8.7623260E+05
   -1.56   700.000   -1.516E+00    9.1862252E+05    3.3109873E+02   -1.1068468E-02    9.1767065E+05   -3.4111474E-03    9.1997236E+05
   -1.55   700.000   -1.659E+00    9.6221754E+05    2.8276920E+02   -1.1398699E-02    9.6118535E+05   -3.5942938E-03    9.6375239E+05
   -1.54   700.000   -1.805E+00    1.0057984E+06    2.2866633E+02   -1.1593828E-02    1.0046704E+06   -3.6909106E-03    1.0075059E+06
   -1.53   700.000   -1.954E+00    1.0492826E+06    1.6951708E+02   -1.1659806E-02    1.0480419E+06   -3.7036654E-03    1.0511451E+06
   -1.52   700.000   -2.106E+00    1.0925481E+06    1.0654764E+02   -1.1610359E-02    1.0911780E+06   -3.6403251E-03    1.0945440E+06
   -1.51   700.000   -2.262E+00    1.1354197E+06    4.1508409E+01   -1.1464895E-02    1.1339044E+06   -3.5118841E-03    1.1375239E+06
   -1.50   700.000   -2.421E+00    1.1776606E+06   -2.3412698E+01   -1.1245422E-02    1.1759864E+06   -3.3300096E-03    1.1798453E+06
   -1.49   700.000   -2.584E+00    1.2189747E+06   -8.5788006E+01   -1.0972769E-02    1.2171295E+06   -3.1041466E-03    1.2212091E+06
   -1.48   700.000   -2.749E+00    1.2590174E+06   -1.4322837E+02   -1.0662543E-02    1.2569909E+06   -2.8387367E-03    1.2612675E+06
   -1.47   700.000   -2.918E+00    1.2974177E+06   -1.9368727E+02   -1.0321430E-02    1.2951997E+06   -2.5310533E-03    1.2996457E+06
   -1.46   700.000   -3.090E+00    1.3338063E+06   -2.3572336E+02   -9.9445011E-03    1.3313852E+06   -2.1701164E-03    1.3359695E+06
   -1.45   700.000   -3.265E+00    1.3678479E+06   -2.6865855E+02   -9.5141455E-03    1.3652092E+06   -1.7370130E-03    1.3698986E+06
   -1.44   700.000   -3.443E+00    1.3992730E+06   -2.9258976E+02   -9.0010175E-03    1.3963974E+06   -1.2067218E-03    1.4011576E+06
   -1.43   700.000   -3.624E+00    1.4279040E+06   -3.0824620E+02   -8.3670779E-03    1.4247664E+06   -5.5127759E-04    1.4295632E+06
   -1.42   700.000   -3.807E+00    1.4536736E+06   -3.1672055E+02   -7.5703846E-03    1.4502424E+06    2.5614611E-04    1.4550421E+06
   -1.41   700.000   -3.994E+00    1.4766336E+06   -3.1913159E+02   -6.5709459E-03    1.4728708E+06    1.2368438E-03    1.4776396E+06
   -1.40   700.000   -4.183E+00    1.4969528E+06   -3.1628850E+02   -5.3367175E-03    1.4928147E+06    2.4025557E-03    1.4975181E+06
   -1.39   700.000   -4.375E+00    1.5149069E+06   -3.0842080E+02   -3.8487878E-03    1.5103451E+06    3.7524535E-03    1.5149462E+06
   -1.38   700.000   -4.569E+00    1.5308608E+06   -2.9501690E+02   -2.1049428E-03    1.5258244E+06    5.2716172E-03    1.5302818E+06
   -1.37   700.000   -4.766E+00    1.5452482E+06   -2.7478670E+02   -1.2109485E-04    1.5396849E+06    6.9312552E-03    1.5439518E+06
   -1.36   700.000   -4.966E+00    1.5585484E+06   -2.4573887E+02    2.0695750E-03    1.5524068E+06    8.6906563E-03    1.5564301E+06
   -1.35   700.000   -5.169E+00    1.5712649E+06   -2.0534738E+02    4.4195456E-03    1.5644964E+06    1.0500595E-02    1.5682165E+06
   -1.34   700.000   -5.374E+00    1.5839071E+06   -1.5077498E+02    6.8714346E-03    1.5764677E+06    1.2307687E-02    1.5798198E+06
   -1.33   700.000   -5.583E+00    1.5969762E+06   -7.9121444E+01    9.3633087E-03    1.5888282E+06    1.4059045E-02    1.5917440E+06
   -1.32   700.000   -5.794E+00    1.6109566E+06    1.2332743E+01    1.1834030E-02    1.6020692E+06    1.5706527E-02    1.6044786E+06
   -1.31   700.000   -6.009E+00    1.6263108E+06    1.2591353E+02    1.4227908E-02    1.6166612E+06    1.7209976E-02    1.6184942E+06
   -1.30   700.000   -6.226E+00    1.6434787E+06    2.6339495E+02    1.6498094E-02    1.6330519E+06    1.8539018E-02    1.6342390E+06
   -1.29   700.000   -6.446E+00    1.6628775E+06    4.2591419E+02    1.8608451E-02    1.6516651E+06    1.9673319E-02    1.6521381E+06
   -1.28   700.000   -6.670E+00    1.6849017E+06    6.1396996E+02    2.0533905E-02    1.6729004E+06    2.0601499E-02    1.6725905E+06
   -1.27   700.000   -6.896E+00    1.7099205E+06    8.2750021E+02    2.2259592E-02    1.6971301E+06    2.1319150E-02    1.6959661E+06
   -1.26   700.000   -7.124E+00    1.7382732E+06    1.0660185E+03    2.3779321E-02    1.7246939E+06    2.1826572E-02    1.7225999E+06
   -1.25   700.000   -7.356E+00    1.7702609E+06    1.3287729E+03    2.5093902E-02    1.7558916E+06    2.2126790E-02    1.7527847E+06
   -1.24   700.000   -7.590E+00    1.8061370E+06    1.6148840E+03    2.6209846E-02    1.7909732E+06    2.2224259E-02    1.7867627E+06
   -1.23   700.000   -7.826E+00    1.8460937E+06    1.9234167E+03    2.7138709E-02    1.8301277E+06    2.2124386E-02    1.8247161E+06
   -1.22   700.000   -8.065E+00    1.8902495E+06    2.2533505E+03    2.7897098E-02    1.8734703E+06    2.1833768E-02    1.8667575E+06
   -1.21   700.000   -8.306E+00    1.9386341E+06    2.6034305E+03    2.8507087E-02    1.9210303E+06    2.1360820E-02    1.9129209E+06
   -1.20   700.000   -8.549E+00    1.9911740E+06    2.9719024E+03    2.8996628E-02    1.9727373E+06    2.0716446E-02    1.9631509E+06
   -1.19   700.000   -8.795E+00    2.0476789E+06    3.3561670E+03    2.9399505E-02    2.0284094E+06    1.9914444E-02    2.0172940E+06
   -1.18   700.000   -9.043E+00    2.1078297E+06    3.7524251E+03    2.9754446E-02    2.0877418E+06    1.8971496E-02    2.0750888E+06
   -1.17   700.000   -9.294E+00    2.1711702E+06    4.1554082E+03    3.0103211E-02    2.1502991E+06    1.7906741E-02    2.1361588E+06
   -1.16   700.000   -9.548E+00    2.2371051E+06    4.5583046E+03    3.0487663E-02    2.2155130E+06    1.6741045E-02    2.2000082E+06
   -1.15   700.000   -9.804E+00    2.3049061E+06    4.9529627E+03    3.0946039E-02    2.2826871E+06    1.5496112E-02    2.2660228E+06
   -1.14   700.000   -1.006E+01    2.3737294E+06    5.3303989E+03    3.1508782E-02    2.3510117E+06    1.4193551E-02    2.3334802E+06
   -1.13   700.000   -1.033E+01    2.4426466E+06    5.6815539E+03    3.2194425E-02    2.4195918E+06    1.2853912E-02    2.4015687E+06
   -1.12   700.000   -1.059E+01    2.5106886E+06    5.9981685E+03    3.3006062E-02    2.4874867E+06    1.1495711E-02    2.4694198E+06
   -1.11   700.000   -1.086E+01    2.5769016E+06    6.2736125E+03    3.3928992E-02    2.5537626E+06    1.0134414E-02    2.5361512E+06
   -1.10   700.000   -1.113E+01    2.6404100E+06    6.5035092E+03    3.4930081E-02    2.6175514E+06    8.7814789E-03    2.6009197E+06
   -1.09   700.000   -1.141E+01    2.7004797E+06    6.6860683E+03    3.5959246E-02    2.6781129E+06    7.4435873E-03    2.6629777E+06
   -1.08   700.000   -1.169E+01    2.7565740E+06    6.8221251E+03    3.6953232E-02    2.7348899E+06    6.1223056E-03    2.7217281E+06
   -1.07   700.000   -1.197E+01    2.8083955E+06    6.9149674E+03    3.7841475E-02    2.7875521E+06    4.8143513E-03    2.7767714E+06
   -1.06   700.000   -1.225E+01    2.8559078E+06    6.9700731E+03    3.8553449E-02    2.8360213E+06    3.5125628E-03    2.8279368E+06
   -1.05   700.000   -1.254E+01    2.8993366E+06    6.9948676E+03    3.9026530E-02    2.8804762E+06    2.2074937E-03    2.8752977E+06
   -1.04   700.000   -1.283E+01    2.9391480E+06    6.9985539E+03    3.9213200E-02    2.9213358E+06    8.8938531E-04    2.9191644E+06
   -1.03   700.000   -1.312E+01    2.9760082E+06    6.9919924E+03    3.9086463E-02    2.9592229E+06   -4.4983558E-04    2.9600588E+06
   -1.02   700.000   -1.342E+01    3.0107262E+06    6.9875504E+03    3.8642646E-02    2.9949093E+06   -1.8149104E-03    2.9986676E+06
   -1.01   700.000   -1.371E+01    3.0441833E+06    6.9988265E+03    3.7901229E-02    3.0292468E+06   -3.2062446E-03    3.0357793E+06
   -1.00   700.000   -1.401E+01    3.0772536E+06    7.0401802E+03    3.6901939E-02    3.0630884E+06   -4.6196887E-03    3.0722075E+06
   -0.99   700.000   -1.432E+01    3.1107211E+06    7.1260547E+03    3.5699751E-02    3.0972040E+06   -6.0470695E-03    3.1087071E+06
   -0.98   700.000   -1.462E+01    3.1452005E+06    7.2701251E+03    3.4358740E-02    3.1322013E+06   -7.4772835E-03    3.1458910E+06
   -0.97   700.000   -1.493E+01    3.1810725E+06    7.4843304E+03    3.2945706E-02    3.1684585E+06   -8.8976625E-03    3.1841592E+06
   -0.96   700.000   -1.524E+01    3.2184411E+06    7.7778399E+03    3.1524356E-02    3.2060818E+06   -1.0295301E-02    3.2236496E+06
   -0.95   700.000   -1.555E+01    3.2571242E+06    8.1559917E+03    3.0150510E-02    3.2448947E+06   -1.1658088E-02    3.2642213E+06
   -0.94   700.000   -1.587E+01    3.2966815E+06    8.6192439E+03    2.8868594E-02    3.2844654E+06   -1.2975310E-02    3.3054761E+06
   -0.93   700.000   -1.619E+01    3.3364793E+06    9.1622125E+03    2.7709469E-02    3.3241716E+06   -1.4237871E-02    3.3468184E+06
   -0.92   700.000   -1.652E+01    3.3757875E+06    9.7729291E+03    2.6689622E-02    3.3632973E+06   -1.5438294E-02    3.3875489E+06
   -0.91   700.000   -1.685E+01    3.4138954E+06    1.0432498E+04    2.5811688E-02    3.4011483E+06   -1.6570777E-02    3.4269781E+06
   -0.90   700.000   -1.718E+01    3.4502296E+06    1.1115343E+04    2.5066277E-02    3.4371712E+06   -1.7631521E-02    3.4645463E+06
   -0.89   700.000   -1.752E+01    3.4844569E+06    1.1790187E+04    2.4434955E-02    3.4710558E+06   -1.8619387E-02    3.4999278E+06
   -0.88   700.000   -1.786E+01    3.5165547E+06    1.2421796E+04    2.3894065E-02    3.5028063E+06   -1.9536787E-02    3.5331058E+06
   -0.87   700.000   -1.821E+01    3.5468368E+06    1.2973372E+04    2.3418862E-02    3.5327672E+06   -2.0390464E-02    3.5644017E+06
   -0.86   700.000   -1.856E+01    3.5759310E+06    1.3409386E+04    2.2987312E-02    3.5616012E+06   -2.1191841E-02    3.5944572E+06
   -0.85   700.000   -1.891E+01    3.6047137E+06    1.3698502E+04    2.2582904E-02    3.5902227E+06   -2.1956617E-02    3.6241695E+06
   -0.84   700.000   -1.927E+01    3.6342110E+06    1.3816228E+04    2.2195987E-02    3.6196980E+06   -2.2703520E-02    3.6545939E+06
   -0.83   700.000   -1.963E+01    3.6654862E+06    1.3746950E+04    2.1823482E-02    3.6511312E+06   -2.3452353E-02    3.6868283E+06
   -0.82   700.000   -1.999E+01    3.6995291E+06    1.3485054E+04    2.1467184E-02    3.6855504E+06   -2.4221601E-02    3.7218996E+06
   -0.81   700.000   -2.036E+01    3.7371640E+06    1.3034990E+04    2.1131165E-02    3.7238137E+06   -2.5025996E-02    3.7606663E+06
   -0.80   700.000   -2.073E+01    3.7789853E+06    1.2410265E+04    2.0818986E-02    3.7665417E+06   -2.5874380E-02    3.8037495E+06
   -0.79   700.000   -2.111E+01    3.8253243E+06    1.1631520E+04    2.0531420E-02    3.8140819E+06   -2.6768135E-02    3.8514954E+06
   -0.78   700.000   -2.149E+01    3.8762441E+06    1.0723982E+04    2.0265196E-02    3.8665028E+06   -2.7700334E-02    3.9039675E+06
   -0.77   700.000   -2.188E+01    3.9315573E+06    9.7146759E+03    2.0012998E-02    3.9236108E+06   -2.8655713E-02    3.9609639E+06
   -0.76   700.000   -2.227E+01    3.9908575E+06    8.6297603E+03    1.9764607E-02    3.9849827E+06   -2.9611458E-02    4.0220501E+06
   -0.75   700.000   -2.266E+01    4.0535585E+06    7.4923770E+03    1.9508795E-02    4.0500070E+06   -3.0538788E-02    4.0866026E+06
   -0.74   700.000   -2.306E+01    4.1189354E+06    6.3212571E+03    1.9235391E-02    4.1179278E+06   -3.1405191E-02    4.1538555E+06
   -0.73   700.000   -2.347E+01    4.1861657E+06    5.1302483E+03    1.8936981E-02    4.1878890E+06   -3.2177126E-02    4.2229474E+06
   -0.72   700.000   -2.388E+01    4.2543690E+06    3.9287682E+03    1.8609822E-02    4.2589773E+06   -3.2822851E-02    4.2929668E+06
   -0.71   700.000   -2.429E+01    4.3226449E+06    2.7230462E+03    1.8253860E-02    4.3302633E+06   -3.3315000E-02    4.3629942E+06
   -0.70   700.000   -2.471E+01    4.3901109E+06    1.5178690E+03    1.7872021E-02    4.4008409E+06   -3.3632494E-02    4.4321419E+06
   -0.69   700.000   -2.514E+01    4.4559388E+06    3.1844860E+02    1.7469135E-02    4.4698655E+06   -3.3761441E-02    4.4995908E+06
   -0.68   700.000   -2.557E+01    4.5193906E+06   -8.6799572E+02    1.7050920E-02    4.5365885E+06   -3.3694866E-02    4.5646232E+06
   -0.67   700.000   -2.600E+01    4.5798500E+06   -2.0312756E+03    1.6623348E-02    4.6003874E+06   -3.3431285E-02    4.6266517E+06
   -0.66   700.000   -2.644E+01    4.6368490E+06   -3.1580693E+03    1.6192514E-02    4.6607887E+06   -3.2972385E-02    4.6852396E+06
   -0.65   700.000   -2.689E+01    4.6900841E+06   -4.2325306E+03    1.5764918E-02    4.7174794E+06   -3.2320262E-02    4.7401121E+06
   -0.64   700.000   -2.734E+01    4.7394194E+06   -5.2374701E+03    1.5347922E-02    4.7703055E+06   -3.1474739E-02    4.7911542E+06
   -0.63   700.000   -2.779E+01    4.7848745E+06   -6.1558035E+03    1.4950088E-02    4.8192559E+06   -3.0431338E-02    4.8383946E+06
   -0.62   700.000   -2.824E+01    4.8265992E+06   -6.9719630E+03    1.4581116E-02    4.8644336E+06   -2.9180338E-02    4.8819773E+06
   -0.61   700.000   -2.870E+01    4.8648356E+06   -7.6730526E+03    1.4251216E-02    4.9060178E+06   -2.7707195E-02    4.9221231E+06
   -0.60   700.000   -2.916E+01    4.8998754E+06   -8.2496513E+03    1.3969827E-02    4.9442237E+06   -2.5994379E-02    4.9590881E+06
   -0.59   700.000   -2.962E+01    4.9320182E+06   -8.6962792E+03    1.3743790E-02    4.9792645E+06   -2.4024426E-02    4.9931241E+06
   -0.58   700.000   -3.009E+01    4.9615375E+06   -9.0116034E+03    1.3575161E-02    5.0113244E+06   -2.1783830E-02    5.0244485E+06
   -0.57   700.000   -3.055E+01    4.9886579E+06   -9.1984616E+03    1.3459057E-02    5.0405433E+06   -1.9267277E-02    5.0532255E+06
   -0.56   700.000   -3.102E+01    5.0135472E+06   -9.2637442E+03    1.3381971E-02    5.0670158E+06   -1.6481650E-02    5.0795621E+06
   -0.55   700.000   -3.149E+01    5.0363204E+06   -9.2181350E+03    1.3321009E-02    5.0908025E+06   -1.3449300E-02    5.1035161E+06
   -0.54   700.000   -3.195E+01    5.0570542E+06   -9.0756868E+03    1.3244401E-02    5.1119482E+06   -1.0210104E-02    5.1251134E+06
   -0.53   700.000   -3.242E+01    5.0758057E+06   -8.8532270E+03    1.3113423E-02    5.1305033E+06   -6.8219700E-03    5.1443695E+06
   -0.52   700.000   -3.289E+01    5.0926312E+06   -8.5696246E+03    1.2885557E-02    5.1465423E+06   -3.3595369E-03    5.1613110E+06
   -0.51   700.000   -3.336E+01    5.1076003E+06   -8.2449920E+03    1.2518522E-02    5.1601763E+06    8.8955424E-05    5.1759919E+06
   -0.50   700.000   -3.383E+01    5.1208037E+06   -7.8999047E+03    1.1974560E-02    5.1715562E+06    3.4264613E-03    5.1885029E+06
   -0.49   700.000   -3.430E+01    5.1323529E+06   -7.5546975E+03    1.1224351E-02    5.1808676E+06    6.5531455E-03    5.1989727E+06
   -0.48   700.000   -3.477E+01    5.1423727E+06   -7.2288318E+03    1.0250009E-02    5.1883173E+06    9.3729702E-03    5.2075611E+06
   -0.47   700.000   -3.523E+01    5.1509900E+06   -6.9402622E+03    9.0467533E-03    5.1941158E+06    1.1800094E-02    5.2144461E+06
   -0.46   700.000   -3.570E+01    5.1583185E+06   -6.7046820E+03    7.6230915E-03    5.1984574E+06    1.3764359E-02    5.2198071E+06
   -0.45   700.000   -3.616E+01    5.1644446E+06   -6.5345296E+03    5.9995898E-03    5.2015004E+06    1.5215333E-02    5.2238070E+06
   -0.44   700.000   -3.662E+01    5.1694147E+06   -6.4377030E+03    4.2064897E-03    5.2033524E+06    1.6124619E-02    5.2265757E+06
   -0.43   700.000   -3.708E+01    5.1732275E+06   -6.4160606E+03    2.2806115E-03    5.2040606E+06    1.6486419E-02    5.2281973E+06
   -0.42   700.000   -3.754E+01    5.1758343E+06   -6.4639395E+03    2.6205056E-04    5.2036119E+06    1.6316509E-02    5.2287054E+06
   -0.41   700.000   -3.799E+01    5.1771482E+06   -6.5670689E+03   -1.8088424E-03    5.2019437E+06    1.5649865E-02    5.2280879E+06
   -0.40   700.000   -3.845E+01    5.1770646E+06   -6.7023161E+03   -3.8938247E-03    5.1989662E+06    1.4537194E-02    5.2263029E+06
   -0.39   700.000   -3.890E+01    5.1754914E+06   -6.8386374E+03   -5.9582824E-03    5.1945945E+06    1.3040628E-02    5.2233048E+06
   -0.38   700.000   -3.935E+01    5.1723836E+06   -6.9394035E+03   -7.9719377E-03    5.1887873E+06    1.1228837E-02    5.2190772E+06
   -0.37   700.000   -3.979E+01    5.1677781E+06   -6.9659642E+03   -9.9089461E-03    5.1815836E+06    9.1719129E-03    5.2136661E+06
   -0.36   700.000   -4.023E+01    5.1618181E+06   -6.8820013E+03   -1.1747684E-02    5.1731307E+06    6.9364747E-03    5.2072057E+06
   -0.35   700.000   -4.067E+01    5.1547632E+06   -6.6579857E+03   -1.3470518E-02    5.1636963E+06    4.5814711E-03    5.1999303E+06
   -0.34   700.000   -4.111E+01    5.1469779E+06   -6.2749871E+03   -1.5063764E-02    5.1536596E+06    2.1551373E-03    5.1921670E+06
   -0.33   700.000   -4.154E+01    5.1389017E+06   -5.7271893E+03   -1.6517870E-02    5.1434815E+06   -3.0661476E-04    5.1843090E+06
   -0.32   700.000   -4.197E+01    5.1310020E+06   -5.0227126E+03   -1.7827771E-02    5.1336577E+06   -2.7803422E-03    5.1767737E+06
   -0.31   700.000   -4.240E+01    5.1237207E+06   -4.1826569E+03   -1.8993230E-02    5.1246629E+06   -5.2539794E-03    5.1699519E+06
   -0.30   700.000   -4.282E+01    5.1174214E+06   -3.2385817E+03   -2.0018996E-02    5.1168955E+06   -7.7249144E-03    5.1641583E+06
   -0.29   700.000   -4.325E+01    5.1123476E+06   -2.2288806E+03   -2.0914650E-02    5.1106316E+06   -1.0197677E-02    5.1595910E+06
   -0.28   700.000   -4.367E+01    5.1085969E+06   -1.1946527E+03   -2.1694080E-02    5.1059951E+06   -1.2681579E-02    5.1563066E+06
   -0.27   700.000   -4.409E+01    5.1061132E+06   -1.7571496E+02   -2.2374634E-02    5.1029465E+06   -1.5188471E-02    5.1542126E+06
   -0.26   700.000   -4.451E+01    5.1046952E+06    7.9267996E+02   -2.2976009E-02    5.1012889E+06   -1.7730604E-02    5.1530768E+06
   -0.25   700.000   -4.494E+01    5.1040164E+06    1.6820332E+03   -2.3519014E-02    5.1006873E+06   -2.0318502E-02    5.1525469E+06
   -0.24   700.000   -4.536E+01    5.1036502E+06    2.4715572E+03   -2.4024318E-02    5.1006945E+06   -2.2958779E-02    5.1521768E+06
   -0.23   700.000   -4.578E+01    5.1030939E+06    3.1480172E+03   -2.4511283E-02    5.1007776E+06   -2.5651963E-02    5.1514514E+06
   -0.22   700.000   -4.621E+01    5.1017897E+06    3.7047653E+03   -2.4996965E-02    5.1003422E+06   -2.8390504E-02    5.1498087E+06
   -0.21   700.000   -4.663E+01    5.0991411E+06    4.1403591E+03   -2.5495315E-02    5.0987526E+06   -3.1157270E-02    5.1466572E+06
   -0.20   700.000   -4.706E+01    5.0945294E+06    4.4571298E+03   -2.6016532E-02    5.0953513E+06   -3.3924815E-02    5.1413921E+06
   -0.19   700.000   -4.749E+01    5.0873331E+06    4.6599548E+03   -2.6566480E-02    5.0894809E+06   -3.6655667E-02    5.1334140E+06
   -0.18   700.000   -4.793E+01    5.0769569E+06    4.7553724E+03   -2.7146041E-02    5.0805135E+06   -3.9303719E-02    5.1221557E+06
   -0.17   700.000   -4.837E+01    5.0628697E+06    4.7510815E+03   -2.7750342E-02    5.0678893E+06   -4.1816671E-02    5.1071175E+06
   -0.16   700.000   -4.882E+01    5.0446524E+06    4.6558184E+03   -2.8367849E-02    5.0511637E+06   -4.4139288E-02    5.0879123E+06
   -0.15   700.000   -4.927E+01    5.0220504E+06    4.4795802E+03   -2.8979507E-02    5.0300589E+06   -4.6217119E-02    5.0643143E+06
   -0.14   700.000   -4.973E+01    4.9950221E+06    4.2341304E+03   -2.9558179E-02    5.0045120E+06   -4.8000192E-02    5.0363058E+06
   -0.13   700.000   -5.019E+01    4.9637768E+06    3.9336713E+03   -3.0068680E-02    4.9747119E+06   -4.9446182E-02    5.0041130E+06
   -0.12   700.000   -5.066E+01    4.9287939E+06    3.5955030E+03   -3.0468661E-02    4.9411187E+06   -5.0522583E-02    4.9682245E+06
   -0.11   700.000   -5.114E+01    4.8908188E+06    3.2404420E+03   -3.0710433E-02    4.9044600E+06   -5.1207563E-02    4.9293881E+06
   -0.10   700.000   -5.162E+01    4.8508359E+06    2.8927720E+03   -3.0743638E-02    4.8657034E+06   -5.1489401E-02    4.8885841E+06
   -0.09   700.000   -5.211E+01    4.8100187E+06    2.5795642E+03   -3.0518540E-02    4.8260070E+06   -5.1364662E-02    4.8469773E+06
   -0.08   700.000   -5.261E+01    4.7696631E+06    2.3293219E+03   -2.9989568E-02    4.7866529E+06   -5.0835546E-02    4.8058510E+06
   -0.07   700.000   -5.312E+01    4.7311080E+06    2.1700459E+03   -2.9118786E-02    4.7489676E+06   -4.9907032E-02    4.7665286E+06
   -0.06   700.000   -5.364E+01    4.6956501E+06    2.1269526E+03   -2.7878966E-02    4.7142367E+06   -4.8584488E-02    4.7302892E+06
   -0.05   700.000   -5.417E+01    4.6644593E+06    2.2201555E+03   -2.6256094E-02    4.6836206E+06   -4.6872378E-02    4.6982825E+06
   -0.04   700.000   -5.471E+01    4.6385008E+06    2.4626414E+03   -2.4251189E-02    4.6580770E+06   -4.4774440E-02    4.6714522E+06
   -0.03   700.000   -5.526E+01    4.6184706E+06    2.8588227E+03   -2.1881379E-02    4.6382965E+06   -4.2295448E-02    4.6504716E+06
   -0.02   700.000   -5.581E+01    4.6047494E+06    3.4038441E+03   -1.9180221E-02    4.6246570E+06   -3.9444295E-02    4.6356980E+06
   -0.01   700.000   -5.638E+01    4.5973784E+06    4.0837071E+03   -1.6197234E-02    4.6171999E+06   -3.6237862E-02    4.6271506E+06
    0.00   700.000   -5.695E+01    4.5960587E+06    4.8761643E+03   -1.2996641E-02    4.6156300E+06   -3.2704922E-02    4.6245115E+06
    0.01   700.000   -5.753E+01    4.6001748E+06    5.7522526E+03   -9.6553688E-03    4.6193392E+06   -2.8889268E-02    4.6271508E+06
    0.02   700.000   -5.812E+01    4.6088392E+06    6.6782878E+03   -6.2604276E-03    4.6274519E+06   -2.4851378E-02    4.6341736E+06
    0.03   700.000   -5.872E+01    4.6209567E+06    7.6181145E+03   -2.9058376E-03    4.6388890E+06   -2.0668129E-02    4.6444856E+06
    0.04   700.000   -5.932E+01    4.6353032E+06    8.5353910E+03    3.1068191E-04    4.6524467E+06   -1.6430434E-02    4.6568724E+06
    0.05   700.000   -5.993E+01    4.6506142E+06    9.3956906E+03    3.2911092E-03    4.6668852E+06   -1.2238954E-02    4.6700888E+06
    0.06   700.000   -6.055E+01    4.6656796E+06    1.0168216E+04    5.9405407E-03    4.6810219E+06   -8.1983813E-03    4.6829514E+06
    0.07   700.000   -6.117E+01    4.6794352E+06    1.0826980E+04    8.1706796E-03    4.6938234E+06   -4.4109154E-03    4.6944299E+06
    0.08   700.000   -6.179E+01    4.6910471E+06    1.1351389E+04    9.9034932E-03    4.7044877E+06   -9.6969293E-04    4.7037285E+06
    0.09   700.000   -6.242E+01    4.6999799E+06    1.1726288E+04    1.1075090E-02    4.7125122E+06    2.0471340E-03    4.7103518E+06
    0.10   700.000   -6.306E+01    4.7060419E+06    1.1941623E+04    1.1639720E-02    4.7177367E+06    4.5810641E-03    4.7141466E+06
    0.11   700.000   -6.370E+01    4.7094001E+06    1.1991929E+04    1.1573574E-02    4.7203585E+06    6.5962476E-03    4.7153161E+06
    0.12   700.000   -6.434E+01    4.7105635E+06    1.1875843E+04    1.0877881E-02    4.7209134E+06    8.0806343E-03    4.7144007E+06
    0.13   700.000   -6.499E+01    4.7103328E+06    1.1595754E+04    9.5806668E-03    4.7202254E+06    9.0453211E-03    4.7122277E+06
    0.14   700.000   -6.564E+01    4.7097230E+06    1.1157574E+04    7.7366217E-03    4.7193284E+06    9.5223559E-03    4.7098350E+06
    0.15   700.000   -6.630E+01    4.7098681E+06    1.0570553E+04    5.4247405E-03    4.7193704E+06    9.5613890E-03    4.7083759E+06
    0.16   700.000   -6.697E+01    4.7119185E+06    9.8470143E+03    2.7437496E-03    4.7215117E+06    9.2256190E-03    4.7090201E+06
    0.17   700.000   -6.764E+01    4.7169458E+06    9.0019550E+03   -1.9424089E-04    4.7268297E+06    8.5874498E-03    4.7128584E+06
    0.18   700.000   -6.832E+01    4.7258617E+06    8.0525579E+03   -3.2710537E-03    4.7362395E+06    7.7242084E-03    4.7208243E+06
    0.19   700.000   -6.901E+01    4.7393596E+06    7.0177337E+03   -6.3696965E-03    4.7504359E+06    6.7142029E-03    4.7336345E+06
    0.20   700.000   -6.970E+01    4.7578772E+06    5.9178195E+03   -9.3805065E-03    4.7698575E+06    5.6333427E-03    4.7517518E+06
    0.21   700.000   -7.040E+01    4.7815798E+06    4.7744703E+03   -1.2205388E-02    4.7946694E+06    4.5525017E-03    4.7753650E+06
    0.22   700.000   -7.111E+01    4.8103585E+06    3.6106312E+03   -1.4759804E-02    4.8247605E+06    3.5357458E-03    4.8043847E+06
    0.23   700.000   -7.182E+01    4.8438411E+06    2.4503454E+03   -1.6972741E-02    4.8597522E+06    2.6394509E-03    4.8384498E+06
    0.24   700.000   -7.254E+01    4.8814128E+06    1.3181176E+03   -1.8785383E-02    4.8990169E+06    1.9122047E-03    4.8769459E+06
    0.25   700.000   -7.327E+01    4.9222493E+06    2.3764663E+02   -2.0149510E-02    4.9417073E+06    1.3952522E-03    4.9190352E+06
    0.26   700.000   -7.400E+01    4.9653622E+06   -7.7004900E+02   -2.1026598E-02    4.9868012E+06    1.1231595E-03    4.9637028E+06
    0.27   700.000   -7.474E+01    5.0096597E+06   -1.6888438E+03   -2.1388248E-02    5.0331596E+06    1.1243664E-03    5.0098179E+06
    0.28   700.000   -7.548E+01    5.0540179E+06   -2.5095987E+03   -2.1217994E-02    5.0796010E+06    1.4214038E-03    5.0562101E+06
    0.29   700.000   -7.623E+01    5.0973603E+06   -3.2316245E+03   -2.0513958E-02    5.1249824E+06    2.0307299E-03    5.1017536E+06
    0.30   700.000   -7.698E+01    5.1387348E+06   -3.8631121E+03   -1.9291405E-02    5.1682818E+06    2.9623368E-03    5.1454495E+06
    0.31   700.000   -7.774E+01    5.1773786E+06   -4.4203519E+03   -1.7584150E-02    5.2086679E+06    4.2194393E-03    5.1864959E+06
    0.32   700.000   -7.850E+01    5.2127637E+06   -4.9258445E+03   -1.5443976E-02    5.2455510E+06    5.7985922E-03    5.2243346E+06
    0.33   700.000   -7.927E+01    5.2446153E+06   -5.4056348E+03   -1.2937714E-02    5.2786053E+06    7.6904922E-03    5.2586698E+06
    0.34   700.000   -8.004E+01    5.2729040E+06   -5.8863238E+03   -1.0142241E-02    5.3077638E+06    9.8814972E-03    5.2894563E+06
    0.35   700.000   -8.082E+01    5.2978135E+06   -6.3921957E+03   -7.1381812E-03    5.3331862E+06    1.2355617E-02    5.3168617E+06
    0.36   700.000   -8.160E+01    5.3196902E+06   -6.9427738E+03   -4.0034520E-03    5.3552074E+06    1.5096480E-02    5.3412096E+06
    0.37   700.000   -8.238E+01    5.3389820E+06   -7.5509453E+03   -8.0789357E-04    5.3742737E+06    1.8088636E-02    5.3629127E+06
    0.38   700.000   -8.317E+01    5.3561728E+06   -8.2216538E+03    2.3900388E-03    5.3908750E+06    2.1317589E-02    5.3824038E+06
    0.39   700.000   -8.396E+01    5.3717204E+06   -8.9510942E+03    5.5439681E-03    5.4054792E+06    2.4768152E-02    5.4000724E+06
    0.40   700.000   -8.476E+01    5.3860012E+06   -9.7263645E+03    8.6177182E-03    5.4184771E+06    2.8421054E-02    5.4162126E+06
    0.41   700.000   -8.556E+01    5.3992688E+06   -1.0525601E+04    1.1581462E-02    5.4301395E+06    3.2248199E-02    5.4309859E+06
    0.42   700.000   -8.637E+01    5.4116274E+06   -1.1318687E+04    1.4406911E-02    5.4405925E+06    3.6207337E-02    5.4444028E+06
    0.43   700.000   -8.718E+01    5.4230228E+06   -1.2068627E+04    1.7062724E-02    5.4498095E+06    4.0237249E-02    5.4563217E+06
    0.44   700.000   -8.800E+01    5.4332502E+06   -1.2733633E+04    1.9511255E-02    5.4576210E+06    4.4254637E-02    5.4664657E+06
    0.45   700.000   -8.883E+01    5.4419756E+06   -1.3269865E+04    2.1707394E-02    5.4637361E+06    4.8153732E-02    5.4744511E+06
    0.46   700.000   -8.966E+01    5.4487653E+06   -1.3634661E+04    2.3599850E-02    5.4677724E+06    5.1809235E-02    5.4798233E+06
    0.47   700.000   -9.050E+01    5.4531194E+06   -1.3790046E+04    2.5134695E-02    5.4692874E+06    5.5082627E-02    5.4820924E+06
    0.48   700.000   -9.135E+01    5.4545021E+06   -1.3706250E+04    2.6260579E-02    5.4678061E+06    5.7831228E-02    5.4807650E+06
    0.49   700.000   -9.221E+01    5.4523677E+06   -1.3364926E+04    2.6934756E-02    5.4628436E+06    5.9918905E-02    5.4753662E+06
    0.50   700.000   -9.307E+01    5.4461799E+06   -1.2761759E+04    2.7128951E-02    5.4539206E+06    6.1227027E-02    5.4654547E+06
    0.51   700.000   -9.394E+01    5.4354267E+06   -1.1908077E+04    2.6834170E-02    5.4405749E+06    6.1664283E-02    5.4506311E+06
    0.52   700.000   -9.481E+01    5.4196336E+06   -1.0831089E+04    2.6063689E-02    5.4223721E+06    6.1174279E-02    5.4305427E+06
    0.53   700.000   -9.569E+01    5.3983772E+06   -9.5724691E+03    2.4853731E-02    5.3989175E+06    5.9740220E-02    5.4048906E+06
    0.54   700.000   -9.658E+01    5.3713019E+06   -8.1852038E+03    2.3261555E-02    5.3698727E+06    5.7386507E-02    5.3734392E+06
    0.55   700.000   -9.747E+01    5.3381396E+06   -6.7289328E+03    2.1360998E-02    5.3349754E+06    5.4177411E-02    5.3360303E+06
    0.56   700.000   -9.837E+01    5.2987314E+06   -5.2643579E+03    1.9235797E-02    5.2940627E+06    5.0213257E-02    5.2926007E+06
    0.57   700.000   -9.927E+01    5.2530461E+06   -3.8475317E+03    1.6971312E-02    5.2470925E+06    4.5624620E-02    5.2431983E+06
    0.58   700.000   -1.002E+02    5.2011936E+06   -2.5249253E+03    1.4645577E-02    5.1941583E+06    4.0565032E-02    5.1879941E+06
    0.59   700.000   -1.011E+02    5.1434252E+06   -1.3300352E+03    1.2320808E-02    5.1354930E+06    3.5202652E-02    5.1272819E+06
    0.60   700.000   -1.020E+02    5.0801188E+06   -2.8198169E+02    1.0036607E-02    5.0714550E+06    2.9711342E-02    5.0614652E+06
    0.61   700.000   -1.029E+02    5.0117483E+06    6.1385561E+02    7.8060144E-03    5.0024993E+06    2.4261607E-02    4.9910264E+06
    0.62   700.000   -1.038E+02    4.9388389E+06    1.3635088E+03    5.6152834E-03    4.9291334E+06    1.9011947E-02    4.9164852E+06
    0.63   700.000   -1.046E+02    4.8619183E+06    1.9810163E+03    3.4277724E-03    4.8518674E+06    1.4101171E-02    4.8383507E+06
    0.64   700.000   -1.055E+02    4.7814704E+06    2.4846649E+03    1.1917055E-03    4.7711682E+06    9.6422158E-03    4.7570779E+06
    0.65   700.000   -1.064E+02    4.6979041E+06    2.8935374E+03   -1.1491119E-03    4.6874265E+06    5.7178740E-03    4.6730381E+06
    0.66   700.000   -1.073E+02    4.6115412E+06    3.2248309E+03   -3.6431228E-03    4.6009451E+06    2.3786710E-03    4.5865094E+06
    0.67   700.000   -1.081E+02    4.5226271E+06    3.4921695E+03   -6.3192564E-03    4.5119489E+06   -3.5710255E-04    4.4976886E+06
    0.68   700.000   -1.090E+02    4.4313603E+06    3.7049144E+03   -9.1774592E-03    4.4206153E+06   -2.5013690E-03    4.4067228E+06
    0.69   700.000   -1.098E+02    4.3379331E+06    3.8683153E+03   -1.2183079E-02    4.3271167E+06   -4.0925540E-03    4.3137508E+06
    0.70   700.000   -1.106E+02    4.2425747E+06    3.9842704E+03   -1.5266019E-02    4.2316652E+06   -5.1905506E-03    4.2189484E+06
    0.71   700.000   -1.114E+02    4.1455884E+06    4.0524334E+03   -1.8324766E-02    4.1345528E+06   -5.8707447E-03    4.1225667E+06
    0.72   700.000   -1.122E+02    4.0473778E+06    4.0714265E+03   -2.1234612E-02    4.0361795E+06   -6.2175049E-03    4.0249598E+06
    0.73   700.000   -1.130E+02    3.9484594E+06    4.0399438E+03   -2.3858748E-02    3.9370682E+06   -6.3175847E-03    3.9266001E+06
    0.74   700.000   -1.137E+02    3.8494632E+06    3.9575814E+03   -2.6060624E-02    3.8378654E+06   -6.2539414E-03    3.8280799E+06
    0.75   700.000   -1.145E+02    3.7511236E+06    3.8252933E+03   -2.7715913E-02    3.7393310E+06   -6.1005109E-03    3.7301039E+06
    0.76   700.000   -1.152E+02    3.6542627E+06    3.6454433E+03   -2.8722734E-02    3.6423187E+06   -5.9184213E-03    3.6334735E+06
    0.77   700.000   -1.159E+02    3.5597692E+06    3.4215051E+03   -2.9009144E-02    3.5477520E+06   -5.7539552E-03    3.5390659E+06
    0.78   700.000   -1.166E+02    3.4685739E+06    3.1575177E+03   -2.8537399E-02    3.4565945E+06   -5.6382867E-03    3.4478093E+06
    0.79   700.000   -1.172E+02    3.3816230E+06    2.8574399E+03   -2.7304913E-02    3.3698192E+06   -5.5887074E-03    3.3606557E+06
    0.80   700.000   -1.179E+02    3.2998492E+06    2.5245477E+03   -2.5342187E-02    3.2883765E+06   -5.6108148E-03    3.2785511E+06
    0.81   700.000   -1.185E+02    3.2241433E+06    2.1609966E+03   -2.2708281E-02    3.2131625E+06   -5.7010469E-03    3.2024054E+06
    0.82   700.000   -1.191E+02    3.1553262E+06    1.7676416E+03   -1.9484608E-02    3.1449909E+06   -5.8490342E-03    3.1330636E+06
    0.83   700.000   -1.197E+02    3.0941232E+06    1.3441733E+03   -1.5767905E-02    3.0845663E+06   -6.0394618E-03    3.0712778E+06
    0.84   700.000   -1.203E+02    3.0411417E+06    8.8959433E+02   -1.1663257E-02    3.0324641E+06   -6.2533993E-03    3.0176825E+06
    0.85   700.000   -1.208E+02    2.9968525E+06    4.0301150E+02   -7.2779173E-03    2.9891130E+06   -6.4692838E-03    2.9727737E+06
    0.86   700.000   -1.214E+02    2.9615734E+06   -1.1533294E+02   -2.7164423E-03    2.9547826E+06   -6.6638636E-03    2.9368901E+06
    0.87   700.000   -1.219E+02    2.9354555E+06   -6.6293008E+02    1.9226032E-03    2.9295719E+06   -6.8134093E-03    2.9101968E+06
    0.88   700.000   -1.224E+02    2.9184692E+06   -1.2339504E+03    6.5484205E-03    2.9133993E+06   -6.8953910E-03    2.8926705E+06
    0.89   700.000   -1.229E+02    2.9103904E+06   -1.8184529E+03    1.1078511E-02    2.9059922E+06   -6.8906360E-03    2.8840849E+06
    0.90   700.000   -1.234E+02    2.9107881E+06   -2.4020140E+03    1.5438408E-02    2.9068766E+06   -6.7857738E-03    2.8839985E+06
    0.91   700.000   -1.239E+02    2.9190156E+06   -2.9658804E+03    1.9561080E-02    2.9153710E+06   -6.5755920E-03    2.8917483E+06
    0.92   700.000   -1.243E+02    2.9342108E+06   -3.4876864E+03    2.3386430E-02    2.9305874E+06   -6.2648185E-03    2.9064517E+06
    0.93   700.000   -1.248E+02    2.9553103E+06   -3.9427221E+03    2.6861172E-02    2.9514465E+06   -5.8688517E-03    2.9270233E+06
    0.94   700.000   -1.253E+02    2.9810813E+06   -4.3056759E+03    2.9939176E-02    2.9767093E+06   -5.4130834E-03    2.9522097E+06
    0.95   700.000   -1.258E+02    3.0101730E+06   -4.5527123E+03    3.2582227E-02    3.0050284E+06   -4.9306992E-03    2.9806430E+06
    0.96   700.000   -1.262E+02    3.0411846E+06   -4.6636738E+03    3.4760994E-02    3.0350165E+06   -4.4591277E-03    3.0109104E+06
    0.97   700.000   -1.267E+02    3.0727451E+06   -4.6241294E+03    3.6455949E-02    3.0653253E+06   -4.0356059E-03    3.0416351E+06
    0.98   700.000   -1.272E+02    3.1035950E+06   -4.4269651E+03    3.7658003E-02    3.0947280E+06   -3.6925374E-03    3.0715582E+06
    0.99   700.000   -1.276E+02    3.1326609E+06   -4.0732442E+03    3.8368658E-02    3.1221937E+06   -3.4534054E-03    3.0996137E+06
    1.00   700.000   -1.281E+02    3.1591155E+06   -3.5721699E+03    3.8599644E-02    3.1469469E+06   -3.3299274E-03    3.1249877E+06
    1.01   700.000   -1.286E+02    3.1824153E+06   -2.9401402E+03    3.8372056E-02    3.1685043E+06   -3.3209074E-03    3.1471552E+06
    1.02   700.000   -1.290E+02    3.2023149E+06   -2.1990561E+03    3.7715129E-02    3.1866864E+06   -3.4129201E-03    3.1658943E+06
    1.03   700.000   -1.295E+02    3.2188574E+06   -1.3741825E+03    3.6664795E-02    3.2016050E+06   -3.5826158E-03    3.1812747E+06
    1.04   700.000   -1.300E+02    3.2323437E+06   -4.9193484E+02    3.5262199E-02    3.2136284E+06   -3.8001573E-03    3.1936271E+06
    1.05   700.000   -1.305E+02    3.2432849E+06    4.2204902E+02    3.3552284E-02    3.2233296E+06   -4.0331598E-03    3.2034940E+06
    1.06   700.000   -1.310E+02    3.2523416E+06    1.3442721E+03    3.1582542E-02    3.2314219E+06   -4.2504981E-03    3.2115693E+06
    1.07   700.000   -1.315E+02    3.2602549E+06    2.2540364E+03    2.9401980E-02    3.2386876E+06   -4.4254752E-03    3.2186290E+06
    1.08   700.000   -1.320E+02    3.2677751E+06    3.1334110E+03    2.7060311E-02    3.2459038E+06   -4.5380255E-03    3.2254589E+06
    1.09   700.000   -1.325E+02    3.2755905E+06    3.9666757E+03    2.4607320E-02    3.2537718E+06   -4.5758170E-03    3.2327841E+06
    1.10   700.000   -1.330E+02    3.2842635E+06    4.7395201E+03    2.2092357E-02    3.2628528E+06   -4.5342796E-03    3.2412032E+06
    1.11   700.000   -1.336E+02    3.2941783E+06    5.4383330E+03    1.9563861E-02    3.2735168E+06   -4.4157058E-03    3.2511348E+06
    1.12   700.000   -1.341E+02    3.3055043E+06    6.0498991E+03    1.7068827E-02    3.2859069E+06   -4.2276670E-03    3.2627775E+06
    1.13   700.000   -1.347E+02    3.3181793E+06    6.5617135E+03    1.4652173E-02    3.2999236E+06   -3.9810597E-03    3.2760899E+06
    1.14   700.000   -1.352E+02    3.3319134E+06    6.9629550E+03    1.2355992E-02    3.3152297E+06   -3.6881416E-03    3.2907906E+06
    1.15   700.000   -1.358E+02    3.3462135E+06    7.2459434E+03    1.0218724E-02    3.3312766E+06   -3.3609105E-03    3.3063795E+06
    1.16   700.000   -1.364E+02    3.3604252E+06    7.4077166E+03    8.2742970E-03    3.3473476E+06   -3.0101020E-03    3.3221780E+06
    1.17   700.000   -1.370E+02    3.3737869E+06    7.4512570E+03    6.5513010E-03    3.3626151E+06   -2.6449310E-03    3.3373833E+06
    1.18   700.000   -1.377E+02    3.3854900E+06    7.3859391E+03    5.0722240E-03    3.3762037E+06   -2.2735090E-03    3.3511314E+06
    1.19   700.000   -1.383E+02    3.3947393E+06    7.2269599E+03    3.8527858E-03    3.3872550E+06   -1.9036884E-03    3.3625626E+06
    1.20   700.000   -1.390E+02    3.4008072E+06    6.9938016E+03    2.9014137E-03    3.3949852E+06   -1.5439883E-03    3.3708809E+06
    1.21   700.000   -1.397E+02    3.4030770E+06    6.7080647E+03    2.2189398E-03    3.3987324E+06   -1.2042676E-03    3.3754046E+06
    1.22   700.000   -1.404E+02    3.4010727E+06    6.3911822E+03    1.7986406E-03    3.3979896E+06   -8.9593145E-04    3.3756011E+06
    1.23   700.000   -1.411E+02    3.3944742E+06    6.0625210E+03    1.6267382E-03    3.3924216E+06   -6.3163349E-04    3.3711052E+06
    1.24   700.000   -1.419E+02    3.3831179E+06    5.7382112E+03    1.6834368E-03    3.3818660E+06   -4.2458067E-04    3.3617214E+06
    1.25   700.000   -1.427E+02    3.3669859E+06    5.4307833E+03    1.9444595E-03    3.3663209E+06   -2.8761559E-04    3.3474121E+06
    1.26   700.000   -1.435E+02    3.3461863E+06    5.1494556E+03    2.3829131E-03    3.3459232E+06   -2.3221442E-04    3.3282762E+06
    1.27   700.000   -1.443E+02    3.3209305E+06    4.9007738E+03    2.9711932E-03    3.3209206E+06   -2.6744137E-04    3.3045235E+06
    1.28   700.000   -1.452E+02    3.2915097E+06    4.6892904E+03    3.6825896E-03    3.2916444E+06   -3.9881272E-04    3.2764486E+06
    1.29   700.000   -1.461E+02    3.2582747E+06    4.5180610E+03    4.4923023E-03    3.2584836E+06   -6.2701468E-04    3.2444081E+06
    1.30   700.000   -1.470E+02    3.2216186E+06    4.3888701E+03    5.3777260E-03    3.2218637E+06   -9.4651744E-04    3.2088030E+06
    1.31   700.000   -1.480E+02    3.1819647E+06    4.3022248E+03    6.3180663E-03    3.1822318E+06   -1.3443056E-03    3.1700647E+06
    1.32   700.000   -1.489E+02    3.1397571E+06    4.2572337E+03    7.2935441E-03    3.1400451E+06   -1.7991228E-03    3.1286460E+06
    1.33   700.000   -1.500E+02    3.0954548E+06    4.2515025E+03    8.2845654E-03    3.0957656E+06   -2.2817128E-03    3.0850147E+06
    1.34   700.000   -1.510E+02    3.0495284E+06    4.2811418E+03    9.2712278E-03    3.0498574E+06   -2.7564625E-03    3.0396502E+06
    1.35   700.000   -1.521E+02    3.0024607E+06    4.3409144E+03    1.0233419E-02    3.0027895E+06   -3.1845958E-03    2.9930431E+06
    1.36   700.000   -1.533E+02    2.9547495E+06    4.4244782E+03    1.1151574E-02    2.9550408E+06   -3.5286874E-03    2.9456973E+06
    1.37   700.000   -1.544E+02    2.9069129E+06    4.5246429E+03    1.2007979E-02    2.9071086E+06   -3.7578644E-03    2.8981350E+06
    1.38   700.000   -1.556E+02    2.8594954E+06    4.6335549E+03    1.2788373E-02    2.8595169E+06   -3.8527726E-03    2.8509024E+06
    1.39   700.000   -1.568E+02    2.8130710E+06    4.7427740E+03    1.3483558E-02    2.8128224E+06   -3.8093043E-03    2.8045724E+06
    1.40   700.000   -1.580E+02    2.7682411E+06    4.8432684E+03    1.4090735E-02    2.7676148E+06   -3.6402739E-03    2.7597434E+06
    1.41   700.000   -1.593E+02    2.7256242E+06    4.9254196E+03    1.4614342E-02    2.7245080E+06   -3.3746444E-03    2.7170304E+06
    1.42   700.000   -1.606E+02    2.6858371E+06    4.9791562E+03    1.5066205E-02    2.6841227E+06   -3.0544484E-03    2.6770470E+06
    1.43   700.000   -1.618E+02    2.6494679E+06    4.9943189E+03    1.5464895E-02    2.6470596E+06   -2.7300457E-03    2.6403801E+06
    1.44   700.000   -1.631E+02    2.6170451E+06    4.9612982E+03    1.5834245E-02    2.6138676E+06   -2.4546785E-03    2.6075606E+06
    1.45   700.000   -1.644E+02    2.5890067E+06    4.8719002E+03    1.6201110E-02    2.5850119E+06   -2.2793362E-03    2.5790336E+06
    1.46   700.000   -1.656E+02    2.5656736E+06    4.7203184E+03    1.6592559E-02    2.5608451E+06   -2.2487294E-03    2.5551321E+06
    1.47   700.000   -1.669E+02    2.5472321E+06    4.5040405E+03    1.7032847E-02    2.5415877E+06   -2.3987992E-03    2.5360599E+06
    1.48   700.000   -1.681E+02    2.5337262E+06    4.2245141E+03    1.7540572E-02    2.5273179E+06   -2.7557679E-03    2.5218833E+06
    1.49   700.000   -1.693E+02    2.5250619E+06    3.8874386E+03    1.8126444E-02    2.5179740E+06   -3.3364114E-03    2.5125333E+06
    1.50   700.000   -1.705E+02    2.5210224E+06    3.5026161E+03    1.8791982E-02    2.5133667E+06   -4.1490433E-03    2.5078184E+06
    1.51   700.000   -1.717E+02    2.5212910E+06    3.0833786E+03    1.9529336E-02    2.5132010E+06   -5.1946779E-03    2.5074455E+06
    1.52   700.000   -1.728E+02    2.5254818E+06    2.6456877E+03    2.0322193E-02    2.5171043E+06   -6.4679301E-03    2.5110473E+06
    1.53   700.000   -1.739E+02    2.5331720E+06    2.2070500E+03    2.1147558E-02    2.5246582E+06   -7.9573699E-03    2.5182133E+06
    1.54   700.000   -1.750E+02    2.5439350E+06    1.7854169E+03    2.1978094E-02    2.5354300E+06   -9.6452445E-03    2.5285211E+06
    1.55   700.000   -1.761E+02    2.5573670E+06    1.3982061E+03    2.2784602E-02    2.5490001E+06   -1.1506670E-02    2.5415647E+06
    1.56   700.000   -1.771E+02    2.5731063E+06    1.0615202E+03    2.3538279E-02    2.5649823E+06   -1.3508572E-02    2.5569749E+06
    1.57   700.000   -1.781E+02    2.5908414E+06    7.8955688E+02    2.4212478E-02    2.5830342E+06   -1.5608774E-02    2.5744301E+06
    1.58   700.000   -1.790E+02    2.6103079E+06    5.9412316E+02    2.4783855E-02    2.6028579E+06   -1.7755692E-02    2.5936568E+06
    1.59   700.000   -1.799E+02    2.6312783E+06    4.8412907E+02    2.5232949E-02    2.6241935E+06   -1.9889031E-02    2.6144215E+06
    1.60   700.000   -1.809E+02    2.6535472E+06    4.6495178E+02    2.5544372E-02    2.6468077E+06   -2.1941772E-02    2.6365177E+06
    1.61   700.000   -1.817E+02    2.6769194E+06    5.3763766E+02    2.5706842E-02    2.6704851E+06   -2.3843476E-02    2.6597541E+06
    1.62   700.000   -1.826E+02    2.7012042E+06    6.9802545E+02    2.5713239E-02    2.6950233E+06   -2.5524720E-02    2.6839482E+06
    1.63   700.000   -1.834E+02    2.7262195E+06    9.3598869E+02    2.5560737E-02    2.7202370E+06   -2.6922196E-02    2.7089280E+06
    1.64   700.000   -1.843E+02    2.7518047E+06    1.2350648E+03    2.5250935E-02    2.7459683E+06   -2.7983845E-02    2.7345424E+06
    1.65   700.000   -1.851E+02    2.7778388E+06    1.5727261E+03    2.4789822E-02    2.7721028E+06   -2.8673274E-02    2.7606771E+06
    1.66   700.000   -1.859E+02    2.8042599E+06    1.9214496E+03    2.4187403E-02    2.7985846E+06   -2.8972817E-02    2.7872719E+06
    1.67   700.000   -1.866E+02    2.8310785E+06    2.2505751E+03    2.3456909E-02    2.8254273E+06   -2.8884761E-02    2.8143334E+06
    1.68   700.000   -1.874E+02    2.8583817E+06    2.5287634E+03    2.2613647E-02    2.8527161E+06   -2.8430614E-02    2.8419395E+06
    1.69   700.000   -1.882E+02    2.8863257E+06    2.7267184E+03    2.1673667E-02    2.8805991E+06   -2.7648623E-02    2.8702333E+06
    1.70   700.000   -1.889E+02    2.9151167E+06    2.8197729E+03    2.0652493E-02    2.9092687E+06   -2.6590053E-02    2.8994055E+06
    1.71   700.000   -1.897E+02    2.9449828E+06    2.7899587E+03    1.9564150E-02    2.9389355E+06   -2.5314885E-02    2.9296685E+06
    1.72   700.000   -1.904E+02    2.9761419E+06    2.6272852E+03    1.8420638E-02    2.9697988E+06   -2.3887507E-02    2.9612262E+06
    1.73   700.000   -1.911E+02    3.0087703E+06    2.3301016E+03    1.7231925E-02    3.0020180E+06   -2.2372872E-02    2.9942427E+06
    1.74   700.000   -1.918E+02    3.0429766E+06    1.9045854E+03    1.6006395E-02    3.0356892E+06   -2.0833279E-02    3.0288167E+06
    1.75   700.000   -1.926E+02    3.0787844E+06    1.3635394E+03    1.4751671E-02    3.0708306E+06   -1.9325769E-02    3.0649628E+06
    1.76   700.000   -1.933E+02    3.1161264E+06    7.2476260E+02    1.3475675E-02    3.1073772E+06   -1.7900023E-02    3.1026041E+06
    1.77   700.000   -1.940E+02    3.1548504E+06    9.2675777E+00    1.2187793E-02    3.1451875E+06   -1.6596630E-02    3.1415767E+06
    1.78   700.000   -1.947E+02    3.1947383E+06   -7.6045148E+02    1.0900038E-02    3.1840600E+06   -1.5445728E-02    3.1816470E+06
    1.79   700.000   -1.954E+02    3.2355337E+06   -1.5619993E+03    9.6280487E-03    3.2237599E+06   -1.4466107E-02    3.2225392E+06
    1.80   700.000   -1.962E+02    3.2769784E+06   -2.3745021E+03    8.3917444E-03    3.2640512E+06   -1.3664986E-02    3.2639720E+06
    1.81   700.000   -1.969E+02    3.3188498E+06   -3.1798961E+03    7.2154213E-03    3.3047323E+06   -1.3038652E-02    3.3056987E+06
    1.82   700.000   -1.976E+02    3.3609970E+06   -3.9640655E+03    6.1270279E-03    3.3456693E+06   -1.2574076E-02    3.3475463E+06
    1.83   700.000   -1.983E+02    3.4033677E+06   -4.7177175E+03    5.1564241E-03    3.3868223E+06   -1.2251493E-02    3.3894472E+06
    1.84   700.000   -1.990E+02    3.4460224E+06   -5.4368035E+03    4.3325467E-03    3.4282602E+06   -1.2047712E-02    3.4314582E+06
    1.85   700.000   -1.998E+02    3.4891335E+06   -6.1222910E+03    3.6796167E-03    3.4701623E+06   -1.1939827E-02    3.4737640E+06
    1.86   700.000   -2.005E+02    3.5329691E+06   -6.7791829E+03    3.2127878E-03    3.5128049E+06   -1.1908832E-02    3.5166635E+06
    1.87   700.000   -2.012E+02    3.5778639E+06   -7.4148657E+03    2.9338863E-03    3.5565363E+06   -1.1942646E-02    3.5605419E+06
    1.88   700.000   -2.020E+02    3.6241837E+06   -8.0370542E+03    2.8280573E-03    3.6017441E+06   -1.2038091E-02    3.6058322E+06
    1.89   700.000   -2.027E+02    3.6722870E+06   -8.6517330E+03    2.8621488E-03    3.6488187E+06   -1.2201452E-02    3.6529727E+06
    1.90   700.000   -2.034E+02    3.7224922E+06   -9.2615054E+03    2.9854816E-03    3.6981203E+06   -1.2447493E-02    3.7023672E+06
    1.91   700.000   -2.042E+02    3.7750522E+06   -9.8646541E+03    3.1332831E-03    3.7499525E+06   -1.2796962E-02    3.7543518E+06
    1.92   700.000   -2.049E+02    3.8301415E+06   -1.0455032E+04    3.2325531E-03    3.8045452E+06   -1.3272946E-02    3.8091740E+06
    1.93   700.000   -2.057E+02    3.8878551E+06   -1.1022709E+04    3.2096019E-03    3.8620495E+06   -1.3896570E-02    3.8669845E+06
    1.94   700.000   -2.065E+02    3.9482202E+06   -1.1555140E+04    2.9980776E-03    3.9225434E+06   -1.4682729E-02    3.9278429E+06
    1.95   700.000   -2.072E+02    4.0112194E+06   -1.2038583E+04    2.5461157E-03    3.9860500E+06   -1.5636508E-02    3.9917378E+06
    1.96   700.000   -2.080E+02    4.0768238E+06   -1.2459473E+04    1.8213645E-03    4.0525652E+06   -1.6750848E-02    4.0586184E+06
    1.97   700.000   -2.088E+02    4.1450337E+06   -1.2805604E+04    8.1304865E-04    4.1220949E+06   -1.8005787E-02    4.1284370E+06
    1.98   700.000   -2.095E+02    4.2159219E+06   -1.3067004E+04   -4.6916530E-04    4.1946976E+06   -1.9369346E-02    4.2011971E+06
    1.99   700.000   -2.103E+02    4.2896764E+06   -1.3236566E+04   -1.9990862E-03    4.2705275E+06   -2.0799878E-02    4.2770029E+06
    2.00   700.000   -2.111E+02    4.3666329E+06   -1.3310501E+04   -3.7397532E-03    4.3498713E+06   -2.2249466E-02    4.3561014E+06
    2.01   700.000   -2.119E+02    4.4472924E+06   -1.3288732E+04   -5.6497775E-03    4.4331715E+06   -2.3667863E-02    4.4389096E+06
    2.02   700.000   -2.127E+02    4.5323174E+06   -1.3175280E+04   -7.6890069E-03    4.5210304E+06   -2.5006384E-02    4.5260202E+06
    2.03   700.000   -2.135E+02    4.6225034E+06   -1.2978651E+04   -9.8224990E-03    4.6141882E+06   -2.6221216E-02    4.6181799E+06
    2.04   700.000   -2.143E+02    4.7187253E+06   -1.2712110E+04   -1.2022232E-02    4.7134756E+06   -2.7275705E-02    4.7162399E+06
    2.05   700.000   -2.151E+02    4.8218624E+06   -1.2393657E+04   -1.4266508E-02    4.8197429E+06   -2.8141374E-02    4.8210819E+06
    2.06   700.000   -2.159E+02    4.9327086E+06   -1.2045472E+04   -1.6537489E-02    4.9337710E+06   -2.8797639E-02    4.9335253E+06
    2.07   700.000   -2.167E+02    5.0518764E+06   -1.1692633E+04   -1.8817685E-02    5.0561734E+06   -2.9230469E-02    5.0542268E+06
    2.08   700.000   -2.174E+02    5.1797046E+06   -1.1361005E+04   -2.1086385E-02    5.1873003E+06   -2.9430408E-02    5.1835823E+06
    2.09   700.000   -2.182E+02    5.3161820E+06   -1.1074381E+04   -2.3316989E-02    5.3271561E+06   -2.9390518E-02    5.3216431E+06
    2.10   700.000   -2.190E+02    5.4608948E+06   -1.0851183E+04   -2.5476005E-02    5.4753416E+06   -2.9104753E-02    5.4680581E+06
    2.11   700.000   -2.198E+02    5.6130089E+06   -1.0701230E+04   -2.7524098E-02    5.6310296E+06   -2.8567139E-02    5.6220497E+06
    2.12   700.000   -2.206E+02    5.7712909E+06   -1.0623195E+04   -2.9419168E-02    5.7929817E+06   -2.7771874E-02    5.7824289E+06
    2.13   700.000   -2.214E+02    5.9341690E+06   -1.0603363E+04   -3.1120986E-02    5.9596049E+06   -2.6714211E-02    5.9476511E+06
    2.14   700.000   -2.222E+02    6.0998282E+06   -1.0616117E+04   -3.2596613E-02    6.1290451E+06   -2.5391756E-02    6.1159070E+06
    2.15   700.000   -2.230E+02    6.2663309E+06   -1.0626260E+04   -3.3825591E-02    6.2993083E+06   -2.3805755E-02    6.2852401E+06
    2.16   700.000   -2.238E+02    6.4317493E+06   -1.0592943E+04   -3.4803905E-02    6.4683946E+06   -2.1961973E-02    6.4536784E+06
    2.17   700.000   -2.246E+02    6.5942956E+06   -1.0474632E+04   -3.5545914E-02    6.6344331E+06   -1.9870940E-02    6.6193664E+06
    2.18   700.000   -2.254E+02    6.7524392E+06   -1.0234366E+04   -3.6083778E-02    6.7958044E+06   -1.7547578E-02    6.7806867E+06
    2.19   700.000   -2.261E+02    6.9050010E+06   -9.8445480E+03   -3.6464414E-02    6.9512413E+06   -1.5010435E-02    6.9363609E+06
    2.20   700.000   -2.269E+02    7.0512212E+06   -9.2906063E+03   -3.6744412E-02    7.0999029E+06   -1.2280876E-02    7.0855256E+06
    2.21   700.000   -2.277E+02    7.1907980E+06   -8.5730815E+03   -3.6983752E-02    7.2414169E+06   -9.3826044E-03    7.2277790E+06
    2.22   700.000   -2.284E+02    7.3238948E+06   -7.7079459E+03   -3.7239287E-02    7.3758897E+06   -6.3417681E-03    7.3631942E+06
    2.23   700.000   -2.292E+02    7.4511149E+06   -6.7251698E+03   -3.7558938E-02    7.5038810E+06   -3.1876818E-03    7.4922983E+06
    2.24   700.000   -2.299E+02    7.5734411E+06   -5.6657510E+03   -3.7977330E-02    7.6263414E+06    4.6030103E-05    7.6160143E+06
    2.25   700.000   -2.307E+02    7.6921427E+06   -4.5775835E+03   -3.8513256E-02    7.7445158E+06    3.3202735E-03    7.7355657E+06
    2.26   700.000   -2.314E+02    7.8086504E+06   -3.5106634E+03   -3.9169052E-02    7.8598161E+06    6.5897760E-03    7.8523504E+06
    2.27   700.000   -2.321E+02    7.9244106E+06   -2.5122070E+03   -3.9931668E-02    7.9736739E+06    9.8032179E-03    7.9677927E+06
    2.28   700.000   -2.329E+02    8.0407301E+06   -1.6222537E+03   -4.0775036E-02    8.0873873E+06    1.2904382E-02    8.0831862E+06
    2.29   700.000   -2.336E+02    8.1586287E+06   -8.7023815E+02   -4.1663289E-02    8.2019764E+06    1.5834239E-02    8.1995475E+06
    2.30   700.000   -2.343E+02    8.2787139E+06   -2.7284970E+02   -4.2554347E-02    8.3180663E+06    1.8533685E-02    8.3174935E+06
    2.31   700.000   -2.350E+02    8.4010946E+06    1.6671282E+02   -4.3403511E-02    8.4358068E+06    2.0946528E-02    8.4371573E+06
    2.32   700.000   -2.357E+02    8.5253404E+06    4.5818387E+02   -4.4166779E-02    8.5548376E+06    2.3022402E-02    8.5581510E+06
    2.33   700.000   -2.364E+02    8.6504909E+06    6.2261536E+02   -4.4803723E-02    8.6743003E+06    2.4719364E-02    8.6795757E+06
    2.34   700.000   -2.371E+02    8.7751130E+06    6.9003145E+02   -4.5279848E-02    8.7928923E+06    2.6006103E-02    8.8000771E+06
    2.35   700.000   -2.378E+02    8.8973963E+06    6.9670924E+02   -4.5568425E-02    8.9089557E+06    2.6863741E-02    8.9179370E+06
    2.36   700.000   -2.385E+02    9.0152784E+06    6.8242493E+02   -4.5651750E-02    9.0205893E+06    2.7287195E-02    9.0311920E+06
    2.37   700.000   -2.392E+02    9.1265841E+06    6.8795577E+02   -4.5521794E-02    9.1257746E+06    2.7286016E-02    9.1377654E+06
    2.38   700.000   -2.399E+02    9.2291691E+06    7.5304147E+02   -4.5180143E-02    9.2225040E+06    2.6884569E-02    9.2356033E+06
    2.39   700.000   -2.406E+02    9.3210560E+06    9.1488072E+02   -4.4637104E-02    9.3089054E+06    2.6121418E-02    9.3228041E+06
    2.40   700.000   -2.413E+02    9.4005575E+06    1.2070802E+03   -4.3909930E-02    9.3833569E+06    2.5047888E-02    9.3977373E+06
    2.41   700.000   -2.420E+02    9.4663816E+06    1.6588298E+03   -4.3020133E-02    9.4445896E+06    2.3725871E-02    9.4591469E+06
    2.42   700.000   -2.427E+02    9.5177185E+06    2.2940073E+03   -4.1990088E-02    9.4917780E+06    2.2225087E-02    9.5062401E+06
    2.43   700.000   -2.434E+02    9.5543089E+06    3.1299749E+03   -4.0839216E-02    9.5246162E+06    2.0619996E-02    9.5387588E+06
    2.44   700.000   -2.441E+02    9.5764895E+06    4.1760169E+03   -3.9580249E-02    9.5433766E+06    1.8986561E-02    9.5570317E+06
    2.45   700.000   -2.448E+02    9.5852123E+06    5.4316454E+03   -3.8216140E-02    9.5489430E+06    1.7398954E-02    9.5620011E+06
    2.46   700.000   -2.455E+02    9.5820296E+06    6.8852478E+03   -3.6738217E-02    9.5428087E+06    1.5926223E-02    9.5552140E+06
    2.47   700.000   -2.462E+02    9.5690361E+06    8.5136744E+03   -3.5126060E-02    9.5270306E+06    1.4628970E-02    9.5387704E+06
    2.48   700.000   -2.469E+02    9.5487648E+06    1.0283274E+04   -3.3349399E-02    9.5041313E+06    1.3556086E-02    9.5152224E+06
    2.49   700.000   -2.476E+02    9.5240390E+06    1.2152592E+04   -3.1372058E-02    9.4769523E+06    1.2741748E-02    9.4874257E+06
    2.50   700.000   -2.483E+02    9.4977915E+06    1.4076515E+04   -2.9157654E-02    9.4484705E+06    1.2202903E-02    9.4583574E+06
    2.51   700.000   -2.490E+02    9.4728712E+06    1.6011242E+04   -2.6676463E-02    9.4215970E+06    1.1937553E-02    9.4309170E+06
    2.52   700.000   -2.496E+02    9.4518615E+06    1.7919173E+04   -2.3912609E-02    9.3989840E+06    1.1924099E-02    9.4077380E+06
    2.53   700.000   -2.503E+02    9.4369305E+06    1.9772762E+04   -2.0870617E-02    9.3828654E+06    1.2121937E-02    9.3910303E+06
    2.54   700.000   -2.510E+02    9.4297318E+06    2.1556624E+04   -1.7580334E-02    9.3749458E+06    1.2473355E-02    9.3824727E+06
    2.55   700.000   -2.516E+02    9.4313586E+06    2.3267493E+04   -1.4099407E-02    9.3763473E+06    1.2906647E-02    9.3831608E+06
    2.56   700.000   -2.523E+02    9.4423491E+06    2.4912138E+04   -1.0512774E-02    9.3876112E+06    1.3340223E-02    9.3936079E+06
    2.57   700.000   -2.530E+02    9.4627298E+06    2.6503626E+04   -6.9289839E-03    9.4087411E+06    1.3687420E-02    9.4137887E+06
    2.58   700.000   -2.536E+02    9.4920824E+06    2.8056615E+04   -3.4735803E-03    9.4392740E+06    1.3861708E-02    9.4432102E+06
    2.59   700.000   -2.542E+02    9.5296193E+06    2.9582368E+04   -2.8017162E-04    9.4783629E+06    1.3781991E-02    9.4809954E+06
    2.60   700.000   -2.549E+02    9.5742546E+06    3.1084239E+04    2.5198857E-03    9.5248564E+06    1.3377805E-02    9.5259637E+06
    2.61   700.000   -2.555E+02    9.6246635E+06    3.2554228E+04    4.8080388E-03    9.5773659E+06    1.2594168E-02    9.5767009E+06
    2.62   700.000   -2.561E+02    9.6793257E+06    3.3971129E+04    6.4881326E-03    9.6343155E+06    1.1395890E-02    9.6316099E+06
    2.63   700.000   -2.567E+02    9.7365531E+06    3.5300633E+04    7.4939734E-03    9.6939737E+06    9.7710146E-03    9.6889422E+06
    2.64   700.000   -2.573E+02    9.7945060E+06    3.6497499E+04    7.7940778E-03    9.7544695E+06    7.7330319E-03    9.7468139E+06
    2.65   700.000   -2.579E+02    9.8512038E+06    3.7509655E+04    7.3932344E-03    9.8138013E+06    5.3214529E-03    9.8032117E+06
    2.66   700.000   -2.585E+02    9.9045387E+06    3.8283737E+04    6.3309509E-03    9.8698460E+06    2.6004195E-03    9.8560006E+06
    2.67   700.000   -2.591E+02    9.9523006E+06    3.8771332E+04    4.6772575E-03    9.9203789E+06   -3.4481278E-04    9.9029411E+06
    2.68   700.000   -2.596E+02    9.9922189E+06    3.8935020E+04    2.5266158E-03    9.9631112E+06   -3.4134103E-03    9.9417256E+06
    2.69   700.000   -2.602E+02    1.0022026E+07    3.8753309E+04   -9.1912263E-06    9.9957495E+06   -6.4961022E-03    9.9700379E+06
    2.70   700.000   -2.607E+02    1.0039537E+07    3.8223787E+04   -2.8083445E-03    1.0016077E+07   -9.4832436E-03    9.9856346E+06
    2.71   700.000   -2.613E+02    1.0042752E+07    3.7364132E+04   -5.7457522E-03    1.0022052E+07   -1.2272945E-02    9.9864458E+06
    2.72   700.000   -2.618E+02    1.0029964E+07    3.6211019E+04   -8.6988319E-03    1.0011922E+07   -1.4778391E-02    9.9706873E+06
    2.73   700.000   -2.623E+02    9.9998654E+06    3.4817308E+04   -1.1552118E-02    9.9843286E+06   -1.6933593E-02    9.9369749E+06
    2.74   700.000   -2.628E+02    9.9516576E+06    3.3248108E+04   -1.4200758E-02    9.9384220E+06   -1.8697063E-02    9.8844313E+06
    2.75   700.000   -2.633E+02    9.8851323E+06    3.1576331E+04   -1.6553132E-02    9.8739424E+06   -2.0053166E-02    9.8127763E+06
    2.76   700.000   -2.638E+02    9.8007321E+06    2.9878220E+04   -1.8532956E-02    9.7912817E+06   -2.1011177E-02    9.7223888E+06
    2.77   700.000   -2.643E+02    9.6995703E+06    2.8229144E+04   -2.0081137E-02    9.6915052E+06   -2.1602258E-02    9.6143314E+06
    2.78   700.000   -2.648E+02    9.5834045E+06    2.6699707E+04   -2.1157565E-02    9.5763269E+06   -2.1874739E-02    9.4903286E+06
    2.79   700.000   -2.652E+02    9.4545579E+06    2.5352174E+04   -2.1742810E-02    9.4480341E+06   -2.1888207E-02    9.3526948E+06
    2.80   700.000   -2.657E+02    9.3157911E+06    2.4237167E+04   -2.1839467E-02    9.3093610E+06   -2.1707005E-02    9.2042102E+06
    2.81   700.000   -2.661E+02    9.1701313E+06    2.3390749E+04   -2.1472794E-02    9.1633219E+06   -2.1393830E-02    9.0479549E+06
    2.82   700.000   -2.665E+02    9.0206773E+06    2.2832086E+04   -2.0690196E-02    9.0130179E+06   -2.1004136E-02    8.8871161E+06
    2.83   700.000   -2.670E+02    8.8703997E+06    2.2561957E+04   -1.9559205E-02    8.8614377E+06   -2.0581925E-02    8.7247875E+06
    2.84   700.000   -2.674E+02    8.7219579E+06    2.2562304E+04   -1.8163758E-02    8.7112744E+06   -2.0157333E-02    8.5637849E+06
    2.85   700.000   -2.678E+02    8.5775553E+06    2.2796933E+04   -1.6598835E-02    8.5647787E+06   -1.9746110E-02    8.4064975E+06
    2.86   700.000   -2.682E+02    8.4388441E+06    2.3213350E+04   -1.4963830E-02    8.4236607E+06   -1.9350785E-02    8.2547882E+06
    2.87   700.000   -2.686E+02    8.3068873E+06    2.3745686E+04   -1.3355251E-02    8.2890492E+06   -1.8963075E-02    8.1099521E+06
    2.88   700.000   -2.690E+02    8.1821780E+06    2.4318724E+04   -1.1859592E-02    8.1615080E+06   -1.8566976E-02    7.9727302E+06
    2.89   700.000   -2.694E+02    8.0647084E+06    2.4853044E+04   -1.0547242E-02    8.0411033E+06   -1.8141998E-02    7.8433725E+06
    2.90   700.000   -2.698E+02    7.9540806E+06    2.5271322E+04   -9.4681963E-03    7.9275134E+06   -1.7666106E-02    7.7217402E+06
    2.91   700.000   -2.702E+02    7.8496439E+06    2.5505594E+04   -8.6501115E-03    7.8201658E+06   -1.7118101E-02    7.6074322E+06
    2.92   700.000   -2.706E+02    7.7506482E+06    2.5504917E+04   -8.0988849E-03    7.7183892E+06   -1.6479350E-02    7.4999238E+06
    2.93   700.000   -2.709E+02    7.6563951E+06    2.5242438E+04   -7.8015421E-03    7.6215644E+06   -1.5734840E-02    7.3987055E+06
    2.94   700.000   -2.713E+02    7.5663767E+06    2.4720511E+04   -7.7308696E-03    7.5292587E+06   -1.4873668E-02    7.3034065E+06
    2.95   700.000   -2.717E+02    7.4803832E+06    2.3972447E+04   -7.8509532E-03    7.4413299E+06   -1.3889071E-02    7.2138960E+06
    2.96   700.000   -2.721E+02    7.3985725E+06    2.3059912E+04   -8.1226718E-03    7.3579891E+06   -1.2778168E-02    7.1303481E+06
    2.97   700.000   -2.725E+02    7.3214894E+06    2.2065757E+04   -8.5082564E-03    7.2798141E+06   -1.1541569E-02    7.0532652E+06
    2.98   700.000   -2.728E+02    7.2500337E+06    2.1083097E+04   -8.9742784E-03    7.2077124E+06   -1.0183023E-02    6.9834542E+06
    2.99   700.000   -2.732E+02    7.1853776E+06    2.0202368E+04   -9.4928086E-03    7.1428361E+06   -8.7092344E-03    6.9219553E+06
    3.00   700.000   -2.736E+02    7.1288405E+06    1.9498582E+04   -1.0040918E-02    7.0864571E+06   -7.1298974E-03    6.8699291E+06
    3.01   700.000   -2.740E+02    7.0817341E+06    1.9020978E+04   -1.0599050E-02    7.0398164E+06   -5.4579437E-03    6.8285123E+06
    3.02   700.000   -2.744E+02    7.0451929E+06    1.8786694E+04   -1.1148991E-02    7.0039621E+06   -3.7098691E-03    6.7986572E+06
    3.03   700.000   -2.747E+02    7.0200126E+06    1.8779252E+04   -1.1672138E-02    6.9795970E+06   -1.9059711E-03    6.7809765E+06
    3.04   700.000   -2.751E+02    7.0065169E+06    1.8951721E+04   -1.2148561E-02    6.9669549E+06   -7.0293649E-05    6.7756151E+06
    3.05   700.000   -2.755E+02    7.0044761E+06    1.9233648E+04   -1.2557040E-02    6.9657275E+06    1.7698824E-03    6.7821725E+06
    3.06   700.000   -2.759E+02    7.0130950E+06    1.9540366E+04   -1.2875922E-02    6.9750586E+06    3.5850705E-03    6.7996941E+06
    3.07   700.000   -2.762E+02    7.0310825E+06    1.9783113E+04   -1.3084478E-02    6.9936148E+06    5.3450668E-03    6.8267416E+06
    3.08   700.000   -2.766E+02    7.0567993E+06    1.9878533E+04   -1.3164311E-02    7.0197325E+06    7.0206860E-03    6.8615416E+06
    3.09   700.000   -2.770E+02    7.0884729E+06    1.9756515E+04   -1.3100520E-02    7.0516276E+06    8.5854284E-03    6.9021989E+06
    3.10   700.000   -2.773E+02    7.1244501E+06    1.9365824E+04   -1.2882446E-02    7.0876421E+06    1.0016729E-02    6.9469468E+06
    3.11   700.000   -2.777E+02    7.1634518E+06    1.8677473E+04   -1.2504031E-02    7.1264931E+06    1.1296508E-02    6.9944000E+06
    3.12   700.000   -2.781E+02    7.2047913E+06    1.7686100E+04   -1.1963940E-02    7.1674867E+06    1.2410915E-02    7.0437718E+06
    3.13   700.000   -2.784E+02    7.2485188E+06    1.6409736E+04   -1.1265612E-02    7.2106621E+06    1.3349344E-02    7.0950214E+06
    3.14   700.000   -2.788E+02    7.2954705E+06    1.4888234E+04   -1.0417344E-02    7.2568431E+06    1.4103023E-02    7.1489062E+06
    3.15   700.000   -2.792E+02    7.3472112E+06    1.3180410E+04   -9.4324107E-03    7.3075860E+06    1.4663558E-02    7.2069326E+06
    3.16   700.000   -2.796E+02    7.4058807E+06    1.1359782E+04   -8.3290940E-03    7.3650316E+06    1.5021820E-02    7.2712079E+06
    3.17   700.000   -2.799E+02    7.4739614E+06    9.5087880E+03   -7.1304778E-03    7.4316790E+06    1.5167452E-02    7.3442164E+06
    3.18   700.000   -2.803E+02    7.5540007E+06    7.7116363E+03   -5.8638316E-03    7.5101114E+06    1.5089090E-02    7.4285456E+06
    3.19   700.000   -2.807E+02    7.6483181E+06    6.0463399E+03   -4.5594800E-03    7.6027033E+06    1.4775212E-02    7.5265940E+06
    3.20   700.000   -2.811E+02    7.7587272E+06    4.5769005E+03   -3.2491110E-03    7.7113398E+06    1.4215395E-02    7.6402902E+06
    3.21   700.000   -2.814E+02    7.8862965E+06    3.3468177E+03   -1.9635485E-03    7.8371724E+06    1.3401696E-02    7.7708458E+06
    3.22   700.000   -2.818E+02    8.0311641E+06    2.3749814E+03   -7.3009211E-04    7.9804270E+06    1.2329912E-02    7.9185587E+06
    3.23   700.000   -2.822E+02    8.1924144E+06    1.6546002E+03    4.3037772E-04    8.1402734E+06    1.1000528E-02    8.0826760E+06
    3.24   700.000   -2.826E+02    8.3680175E+06    1.1552416E+03    1.5062052E-03    8.3147603E+06    9.4193058E-03    8.2613195E+06
    3.25   700.000   -2.830E+02    8.5548299E+06    8.2751557E+02    2.4972257E-03    8.5008119E+06    7.5975169E-03    8.4514751E+06
    3.26   700.000   -2.834E+02    8.7486525E+06    6.0956041E+02    3.4159662E-03    8.6942837E+06    5.5519071E-03    8.6490422E+06
    3.27   700.000   -2.839E+02    8.9443416E+06    4.3434837E+02    4.2872913E-03    8.8900741E+06    3.3044430E-03    8.8489433E+06
    3.28   700.000   -2.843E+02    9.1359740E+06    2.3689341E+02    5.1462074E-03    9.0822888E+06    8.8189030E-04    9.0452911E+06
    3.29   700.000   -2.847E+02    9.3170653E+06   -3.9369026E+01    6.0338785E-03    9.2644587E+06   -1.6847598E-03    9.2316134E+06
    3.30   700.000   -2.852E+02    9.4808432E+06   -4.3753305E+02    6.9923162E-03    9.4298121E+06   -4.3609950E-03    9.4011346E+06
    3.31   700.000   -2.856E+02    9.6205739E+06   -9.8380412E+02    8.0585668E-03    9.5715989E+06   -7.1095634E-03    9.5471082E+06
    3.32   700.000   -2.861E+02    9.7299329E+06   -1.6858641E+03    9.2594082E-03    9.6834584E+06   -9.8912390E-03    9.6631904E+06
    3.33   700.000   -2.865E+02    9.8034014E+06   -2.5330810E+03    1.0607529E-02    9.7598145E+06   -1.2665451E-02    9.7438349E+06
    3.34   700.000   -2.870E+02    9.8366585E+06   -3.4985592E+03    1.2099896E-02    9.7962673E+06   -1.5390678E-02    9.7846781E+06
    3.35   700.000   -2.875E+02    9.8269295E+06   -4.5429412E+03    1.3718570E-02    9.7899443E+06   -1.8024569E-02    9.7828792E+06
    3.36   700.000   -2.879E+02    9.7732471E+06   -5.6197115E+03    1.5433782E-02    9.7397666E+06   -2.0523847E-02    9.7373736E+06
    3.37   700.000   -2.884E+02    9.6765846E+06   -6.6815186E+03    1.7208610E-02    9.6465891E+06   -2.2844163E-02    9.6490018E+06
    3.38   700.000   -2.889E+02    9.5398353E+06   -7.6867493E+03    1.9004389E-02    9.5131883E+06   -2.4940092E-02    9.5204914E+06
    3.39   700.000   -2.894E+02    9.3676274E+06   -8.6053732E+03    2.0785872E-02    9.3440855E+06   -2.6765532E-02    9.3562818E+06
    3.40   700.000   -2.898E+02    9.1659925E+06   -9.4230365E+03    2.2525312E-02    9.1452220E+06   -2.8274642E-02    9.1622081E+06
    3.41   700.000   -2.903E+02    8.9419240E+06   -1.0142588E+04    2.4204930E-02    8.9235228E+06   -2.9423432E-02    8.9450773E+06
    3.42   700.000   -2.908E+02    8.7028798E+06   -1.0782671E+04    2.5817551E-02    8.6864012E+06   -3.0171941E-02    8.7121886E+06
    3.43   700.000   -2.912E+02    8.4562909E+06   -1.1373595E+04    2.7365605E-02    8.4412664E+06   -3.0486870E-02    8.4708548E+06
    3.44   700.000   -2.917E+02    8.2091312E+06   -1.1951280E+04    2.8858882E-02    8.1950897E+06   -3.0344407E-02    8.2279776E+06
    3.45   700.000   -2.922E+02    7.9675901E+06   -1.2550427E+04    3.0311654E-02    7.9540725E+06   -2.9732930E-02    7.9897203E+06
    3.46   700.000   -2.927E+02    7.7368713E+06   -1.3198246E+04    3.1739710E-02    7.7234381E+06   -2.8655242E-02    7.7612996E+06
    3.47   700.000   -2.931E+02    7.5211132E+06   -1.3909862E+04    3.3157765E-02    7.5073480E+06   -2.7129948E-02    7.5468964E+06
    3.48   700.000   -2.936E+02    7.3234165E+06   -1.4686128E+04    3.4577488E-02    7.3089254E+06   -2.5191707E-02    7.3496720E+06
    3.49   700.000   -2.941E+02    7.1459448E+06   -1.5514062E+04    3.6006195E-02    7.1303550E+06   -2.2890130E-02    7.1718588E+06
    3.50   700.000   -2.946E+02    6.9900671E+06   -1.6369557E+04    3.7446088E-02    6.9730267E+06   -2.0287341E-02    7.0148948E+06
    3.51   700.000   -2.951E+02    6.8565108E+06   -1.7221608E+04    3.8893821E-02    6.8376916E+06   -1.7454362E-02    6.8795730E+06
    3.52   700.000   -2.956E+02    6.7455060E+06   -1.8037083E+04    4.0340245E-02    6.7246089E+06   -1.4466732E-02    6.7661831E+06
    3.53   700.000   -2.961E+02    6.6569070E+06   -1.8785095E+04    4.1770201E-02    6.6336709E+06   -1.1399834E-02    6.6746340E+06
    3.54   700.000   -2.966E+02    6.5902894E+06   -1.9440225E+04    4.3162392E-02    6.5645004E+06   -8.3244752E-03    6.6045509E+06
    3.55   700.000   -2.971E+02    6.5450206E+06   -1.9984260E+04    4.4489450E-02    6.5165219E+06   -5.3031520E-03    6.5553475E+06
    3.56   700.000   -2.977E+02    6.5203078E+06   -2.0406400E+04    4.5718342E-02    6.4890077E+06   -2.3873118E-03    6.5262731E+06
    3.57   700.000   -2.982E+02    6.5152246E+06   -2.0702261E+04    4.6811297E-02    6.4811017E+06    3.8426014E-04    6.5164392E+06
    3.58   700.000   -2.987E+02    6.5287176E+06   -2.0872110E+04    4.7727348E-02    6.4918231E+06    2.9859409E-03    6.5248261E+06
    3.59   700.000   -2.993E+02    6.5595962E+06   -2.0918858E+04    4.8424533E-02    6.5200522E+06    5.4047803E-03    6.5502732E+06
    3.60   700.000   -2.998E+02    6.6065084E+06   -2.0846283E+04    4.8862662E-02    6.5645018E+06    7.6392079E-03    6.5914584E+06
    3.61   700.000   -3.004E+02    6.6679088E+06   -2.0657791E+04    4.9006470E-02    6.6236831E+06    9.6971540E-03    6.6468702E+06
    3.62   700.000   -3.009E+02    6.7420264E+06   -2.0355912E+04    4.8828853E-02    6.6958711E+06    1.1593806E-02    6.7147827E+06
    3.63   700.000   -3.015E+02    6.8268417E+06   -1.9942506E+04    4.8313820E-02    6.7790823E+06    1.3349218E-02    6.7932387E+06
    3.64   700.000   -3.021E+02    6.9200824E+06   -1.9419519E+04    4.7458774E-02    6.8710727E+06    1.4985982E-02    6.8800511E+06
    3.65   700.000   -3.026E+02    7.0192473E+06   -1.8790009E+04    4.6275805E-02    6.9693643E+06    1.6527127E-02    6.9728274E+06
    3.66   700.000   -3.032E+02    7.1216629E+06   -1.8059159E+04    4.4791814E-02    7.0713054E+06    1.7994420E-02    7.0690232E+06
    3.67   700.000   -3.038E+02    7.2245758E+06   -1.7235013E+04    4.3047462E-02    7.1741649E+06    1.9407169E-02    7.1660253E+06
    3.68   700.000   -3.043E+02    7.3252761E+06   -1.6328797E+04    4.1095114E-02    7.2752546E+06    2.0781606E-02    7.2612614E+06
    3.69   700.000   -3.049E+02    7.4212417E+06   -1.5354792E+04    3.8996057E-02    7.3720712E+06    2.2130853E-02    7.3523274E+06
    3.70   700.000   -3.055E+02    7.5102869E+06   -1.4329852E+04    3.6817318E-02    7.4624394E+06    2.3465379E-02    7.4371198E+06
    3.71   700.000   -3.060E+02    7.5906967E+06   -1.3272722E+04    3.4628351E-02    7.5446404E+06    2.4793775E-02    7.5139568E+06
    3.72   700.000   -3.066E+02    7.6613252E+06   -1.2203312E+04    3.2497803E-02    7.6175060E+06    2.6123575E-02    7.5816722E+06
    3.73   700.000   -3.071E+02    7.7216459E+06   -1.1142006E+04    3.0490440E-02    7.6804655E+06    2.7461807E-02    7.6396674E+06
    3.74   700.000   -3.076E+02    7.7717424E+06   -1.0108984E+04    2.8664308E-02    7.7335375E+06    2.8814972E-02    7.6879157E+06
    3.75   700.000   -3.082E+02    7.8122439E+06   -9.1234388E+03    2.7068126E-02    7.7772672E+06    3.0188277E-02    7.7269154E+06
    3.76   700.000   -3.087E+02    7.8442128E+06   -8.2025872E+03    2.5739002E-02    7.8126198E+06    3.1584090E-02    7.7575991E+06
    3.77   700.000   -3.092E+02    7.8690015E+06   -7.3604379E+03    2.4700545E-02    7.8408440E+06    3.2999847E-02    7.7812104E+06
    3.78   700.000   -3.097E+02    7.8880958E+06   -6.6065096E+03    2.3961518E-02    7.8633229E+06    3.4425778E-02    7.7991623E+06
    3.79   700.000   -3.102E+02    7.9029651E+06   -5.9448395E+03    2.3515156E-02    7.8814303E+06    3.5842969E-02    7.8128942E+06
    3.80   700.000   -3.106E+02    7.9149319E+06   -5.3737039E+03    2.3339253E-02    7.8964065E+06    3.7222227E-02    7.8237420E+06
    3.81   700.000   -3.111E+02    7.9250740E+06   -4.8863603E+03    2.3397109E-02    7.9092639E+06    3.8524106E-02    7.8328342E+06
    3.82   700.000   -3.115E+02    7.9341637E+06   -4.4728366E+03    2.3639351E-02    7.9207277E+06    3.9700230E-02    7.8410209E+06
    3.83   700.000   -3.120E+02    7.9426465E+06   -4.1224644E+03    2.4006638E-02    7.9312149E+06    4.0695832E-02    7.8488415E+06
    3.84   700.000   -3.124E+02    7.9506564E+06   -3.8266005E+03    2.4433164E-02    7.9408486E+06    4.1453222E-02    7.8565283E+06
    3.85   700.000   -3.128E+02    7.9580636E+06   -3.5809317E+03    2.4850789E-02    7.9495036E+06    4.1915779E-02    7.8640433E+06
    3.86   700.000   -3.133E+02    7.9645476E+06   -3.3869019E+03    2.5193507E-02    7.9568780E+06    4.2032053E-02    7.8711411E+06
    3.87   700.000   -3.137E+02    7.9696881E+06   -3.2520652E+03    2.5401816E-02    7.9625825E+06    4.1759551E-02    7.8774517E+06
    3.88   700.000   -3.141E+02    7.9730650E+06   -3.1894215E+03    2.5426489E-02    7.9662386E+06    4.1067875E-02    7.8825740E+06
    3.89   700.000   -3.145E+02    7.9743582E+06   -3.2159539E+03    2.5231266E-02    7.9675771E+06    3.9940963E-02    7.8861725E+06
    3.90   700.000   -3.148E+02    7.9734345E+06   -3.3506490E+03    2.4794093E-02    7.9665216E+06    3.8378275E-02    7.8880662E+06
    3.91   700.000   -3.152E+02    7.9704096E+06   -3.6122836E+03    2.4106834E-02    7.9632475E+06    3.6394913E-02    7.8882971E+06
    3.92   700.000   -3.156E+02    7.9656750E+06   -4.0172504E+03    2.3173603E-02    7.9582030E+06    3.4020768E-02    7.8871671E+06
    3.93   700.000   -3.159E+02    7.9598807E+06   -4.5776833E+03    2.2008196E-02    7.9520863E+06    3.1298931E-02    7.8852343E+06
    3.94   700.000   -3.163E+02    7.9538750E+06   -5.3001123E+03    2.0631197E-02    7.9457799E+06    2.8283610E-02    7.8832654E+06
    3.95   700.000   -3.166E+02    7.9486064E+06   -6.1848108E+03    1.9067354E-02    7.9402474E+06    2.5037795E-02    7.8821484E+06
    3.96   700.000   -3.170E+02    7.9450021E+06   -7.2258849E+03    1.7343636E-02    7.9364097E+06    2.1630788E-02    7.8827767E+06
    3.97   700.000   -3.173E+02    7.9438387E+06   -8.4120284E+03    1.5488112E-02    7.9350147E+06    1.8135603E-02    7.8859205E+06
    3.98   700.000   -3.176E+02    7.9456232E+06   -9.7277535E+03    1.3529487E-02    7.9365211E+06    1.4626156E-02    7.8921036E+06
    3.99   700.000   -3.180E+02    7.9504989E+06   -1.1154826E+04    1.1496925E-02    7.9410079E+06    1.1174198E-02    7.9015005E+06
    4.00   700.000   -3.183E+02    7.9581866E+06   -1.2673598E+04    9.4197145E-03    7.9481225E+06    7.8460566E-03    7.9138670E+06
    4.01   700.000   -3.186E+02    7.9679677E+06   -1.4263923E+04    7.3264595E-03    7.9570712E+06    4.6994451E-03    7.9285123E+06
    4.02   700.000   -3.189E+02    7.9787109E+06   -1.5905423E+04    5.2436975E-03    7.9666545E+06    1.7807596E-03    7.9443159E+06
    4.03   700.000   -3.192E+02    7.9889385E+06   -1.7576950E+04    3.1941680E-03    7.9753418E+06   -8.7665414E-04    7.9597871E+06
    4.04   700.000   -3.194E+02    7.9969259E+06   -1.9255288E+04    1.1951756E-03    7.9813787E+06   -3.2528620E-03    7.9731601E+06
    4.05   700.000   -3.197E+02    8.0008195E+06   -2.0913342E+04   -7.4241262E-04    7.9829114E+06   -5.3401602E-03    7.9825136E+06
    4.06   700.000   -3.200E+02    7.9987598E+06   -2.2518221E+04   -2.6141023E-03    7.9781137E+06   -7.1404830E-03    7.9858982E+06
    4.07   700.000   -3.203E+02    7.9889915E+06   -2.4029772E+04   -4.4204753E-03    7.9652990E+06   -8.6618170E-03    7.9814559E+06
    4.08   700.000   -3.205E+02    7.9699487E+06   -2.5400082E+04   -6.1648488E-03    7.9430041E+06   -9.9142294E-03    7.9675189E+06
    4.09   700.000   -3.208E+02    7.9403084E+06   -2.6574318E+04   -7.8503931E-03    7.9100397E+06   -1.0906171E-02    7.9426772E+06
    4.10   700.000   -3.210E+02    7.8990154E+06   -2.7493053E+04   -9.4773913E-03    7.8655085E+06   -1.1641644E-02    7.9058179E+06
    4.11   700.000   -3.213E+02    7.8452865E+06   -2.8095877E+04   -1.1041313E-02    7.8088004E+06   -1.2118646E-02    7.8561400E+06
    4.12   700.000   -3.215E+02    7.7786093E+06   -2.8325877E+04   -1.2532194E-02    7.7395806E+06   -1.2329118E-02    7.7931574E+06
    4.13   700.000   -3.218E+02    7.6987481E+06   -2.8134390E+04   -1.3935509E-02    7.6577816E+06   -1.2260353E-02    7.7167016E+06
    4.14   700.000   -3.220E+02    7.6057658E+06   -2.7485393E+04   -1.5234410E-02    7.5636110E+06   -1.1897662E-02    7.6269326E+06
    4.15   700.000   -3.223E+02    7.5000596E+06   -2.6359000E+04   -1.6412891E-02    7.4575731E+06   -1.1227878E-02    7.5243589E+06
    4.16   700.000   -3.225E+02    7.3824043E+06   -2.4753709E+04   -1.7459256E-02    7.3405009E+06   -1.0243157E-02    7.4098611E+06
    4.17   700.000   -3.227E+02    7.2539875E+06   -2.2687205E+04   -1.8369160E-02    7.2135825E+06   -8.9444669E-03    7.2847086E+06
    4.18   700.000   -3.229E+02    7.1164198E+06   -2.0195775E+04   -1.9147558E-02    7.0783707E+06   -7.3441682E-03    7.1505562E+06
    4.19   700.000   -3.232E+02    6.9717111E+06   -1.7332482E+04   -1.9809064E-02    6.9367630E+06   -5.4671784E-03    7.0094106E+06
    4.20   700.000   -3.234E+02    6.8222042E+06   -1.4164399E+04   -2.0376554E-02    6.7909467E+06   -3.3504392E-03    6.8635622E+06
    4.21   700.000   -3.236E+02    6.6704724E+06   -1.0769226E+04   -2.0878216E-02    6.6433107E+06   -1.0406762E-03    6.7154868E+06
    4.22   700.000   -3.239E+02    6.5191902E+06   -7.2315966E+03   -2.1343600E-02    6.4963343E+06    1.4092360E-03    6.5677250E+06
    4.23   700.000   -3.241E+02    6.3709936E+06   -3.6393492E+03   -2.1799479E-02    6.3524637E+06    3.9447062E-03    6.4227547E+06
    4.24   700.000   -3.243E+02    6.2283473E+06   -7.9909337E+01   -2.2266320E-02    6.2139924E+06    6.5138957E-03    6.2828719E+06
    4.25   700.000   -3.246E+02    6.0934334E+06    3.3631233E+03   -2.2755983E-02    6.0829599E+06    9.0714637E-03    6.1500915E+06
    4.26   700.000   -3.248E+02    5.9680722E+06    6.6131797E+03   -2.3270923E-02    5.9610762E+06    1.1581012E-02    6.0260805E+06
    4.27   700.000   -3.251E+02    5.8536800E+06    9.6037068E+03   -2.3804786E-02    5.8496793E+06    1.4015964E-02    5.9121233E+06
    4.28   700.000   -3.253E+02    5.7512602E+06    1.2280881E+04   -2.4343993E-02    5.7497229E+06    1.6358946E-02    5.8091201E+06
    4.29   700.000   -3.256E+02    5.6614215E+06    1.4605911E+04   -2.4869787E-02    5.6617884E+06    1.8600038E-02    5.7176102E+06
    4.30   700.000   -3.259E+02    5.5844121E+06    1.6556730E+04   -2.5360278E-02    5.5861138E+06    2.0734382E-02    5.6378097E+06
    4.31   700.000   -3.261E+02    5.5201606E+06    1.8128843E+04   -2.5792164E-02    5.5226289E+06    2.2759643E-02    5.5696553E+06
    4.32   700.000   -3.264E+02    5.4683159E+06    1.9335173E+04   -2.6142049E-02    5.4709924E+06    2.4673697E-02    5.5128468E+06
    4.33   700.000   -3.267E+02    5.4282841E+06    2.0204871E+04   -2.6387429E-02    5.4306268E+06    2.6472743E-02    5.4668844E+06
    4.34   700.000   -3.270E+02    5.3992650E+06    2.0781210E+04   -2.6507490E-02    5.4007566E+06    2.8149939E-02    5.4311051E+06
    4.35   700.000   -3.272E+02    5.3802932E+06    2.1118797E+04   -2.6483868E-02    5.3804505E+06    2.9694540E-02    5.4047203E+06
    4.36   700.000   -3.275E+02    5.3702893E+06    2.1280394E+04   -2.6301391E-02    5.3686747E+06    3.1091556E-02    5.3868604E+06
    4.37   700.000   -3.278E+02    5.3681245E+06    2.1333593E+04   -2.5948775E-02    5.3643587E+06    3.2321938E-02    5.3766289E+06
    4.38   700.000   -3.281E+02    5.3726951E+06    2.1347516E+04   -2.5419133E-02    5.3664687E+06    3.3363288E-02    5.3731644E+06
    4.39   700.000   -3.284E+02    5.3830042E+06    2.1389561E+04   -2.4710199E-02    5.3740865E+06    3.4191084E-02    5.3757067E+06
    4.40   700.000   -3.287E+02    5.3982389E+06    2.1522120E+04   -2.3824230E-02    5.3864831E+06    3.4780273E-02    5.3836599E+06
    4.41   700.000   -3.290E+02    5.4178372E+06    2.1799186E+04   -2.2767666E-02    5.4031802E+06    3.5107027E-02    5.3966470E+06
    4.42   700.000   -3.293E+02    5.4415371E+06    2.2262813E+04   -2.1550751E-02    5.4239948E+06    3.5150344E-02    5.4145504E+06
    4.43   700.000   -3.296E+02    5.4694039E+06    2.2939563E+04   -2.0187327E-02    5.4490634E+06    3.4893199E-02    5.4375359E+06
    4.44   700.000   -3.299E+02    5.5018378E+06    2.3837300E+04   -1.8695013E-02    5.4788473E+06    3.4323051E-02    5.4660598E+06
    4.45   700.000   -3.303E+02    5.5395629E+06    2.4942814E+04   -1.7095810E-02    5.5141214E+06    3.3431660E-02    5.5008624E+06
    4.46   700.000   -3.306E+02    5.5836037E+06    2.6220829E+04   -1.5417018E-02    5.5559514E+06    3.2214409E-02    5.5429490E+06
    4.47   700.000   -3.309E+02    5.6352533E+06    2.7614826E+04   -1.3692188E-02    5.6056630E+06    3.0669440E-02    5.5935634E+06
    4.48   700.000   -3.312E+02    5.6960369E+06    2.9049894E+04   -1.1961698E-02    5.6648063E+06    2.8796992E-02    5.6541568E+06
    4.49   700.000   -3.315E+02    5.7676715E+06    3.0437520E+04   -1.0272583E-02    5.7351167E+06    2.6599265E-02    5.7263520E+06
    4.50   700.000   -3.318E+02    5.8520236E+06    3.1681926E+04   -8.6772863E-03    5.8184725E+06    2.4080961E-02    5.8119058E+06
    4.51   700.000   -3.321E+02    5.9510646E+06    3.2687347E+04   -7.2312406E-03    5.9168494E+06    2.1250463E-02    5.9126691E+06
    4.52   700.000   -3.324E+02    6.0668224E+06    3.3365511E+04   -5.9894014E-03    6.0322716E+06    1.8121447E-02    6.0305448E+06
    4.53   700.000   -3.327E+02    6.2013316E+06    3.3642570E+04   -5.0020826E-03    6.1667598E+06    1.4714540E-02    6.1674441E+06
    4.54   700.000   -3.331E+02    6.3565806E+06    3.3464803E+04   -4.3106196E-03    6.3222775E+06    1.1058650E-02    6.3252406E+06
    4.55   700.000   -3.334E+02    6.5344557E+06    3.2802589E+04   -3.9434369E-03    6.5006741E+06    7.1915693E-03    6.5057213E+06
    4.56   700.000   -3.337E+02    6.7366791E+06    3.1652307E+04   -3.9130385E-03    6.7036237E+06    3.1596141E-03    6.7105313E+06
    4.57   700.000   -3.340E+02    6.9647387E+06    3.0036064E+04   -4.2142741E-03    6.9325574E+06   -9.8378338E-04    6.9411084E+06
    4.58   700.000   -3.343E+02    7.2198033E+06    2.7999382E+04   -4.8240145E-03    7.1885837E+06   -5.1803750E-03    7.1986037E+06
    4.59   700.000   -3.347E+02    7.5026213E+06    2.5607212E+04   -5.7021550E-03    7.4723943E+06   -9.3699594E-03    7.4837829E+06
    4.60   700.000   -3.350E+02    7.8133998E+06    2.2938815E+04   -6.7937013E-03    7.7841523E+06   -1.3493341E-02    7.7969077E+06
    4.61   700.000   -3.353E+02    8.1516680E+06    2.0082135E+04   -8.0316263E-03    8.1233643E+06   -1.7494908E-02    8.1375993E+06
    4.62   700.000   -3.357E+02    8.5161326E+06    1.7128238E+04   -9.3402101E-03    8.4887436E+06   -2.1324451E-02    8.5046920E+06
    4.63   700.000   -3.360E+02    8.9045376E+06    1.4166189E+04   -1.0638674E-02    8.8780751E+06   -2.4938050E-02    8.8960885E+06
    4.64   700.000   -3.364E+02    9.3135504E+06    1.1278570E+04   -1.1845027E-02    9.2881014E+06   -2.8298091E-02    9.3086389E+06
    4.65   700.000   -3.368E+02    9.7386948E+06    8.5376316E+03   -1.2880122E-02    9.7144508E+06   -3.1372720E-02    9.7380629E+06
    4.66   700.000   -3.371E+02    1.0174358E+07    6.0020672E+03   -1.3671884E-02    1.0151634E+07   -3.4135133E-02    1.0178942E+07
    4.67   700.000   -3.375E+02    1.0613890E+07    3.7144385E+03   -1.4159583E-02    1.0593128E+07   -3.6563130E-02    1.0624804E+07
    4.68   700.000   -3.379E+02    1.1049815E+07    1.6994322E+03   -1.4297850E-02    1.1031568E+07   -3.8639219E-02    1.1068313E+07
    4.69   700.000   -3.383E+02    1.1474147E+07   -3.6821183E+01   -1.4059982E-02    1.1459048E+07   -4.0351304E-02    1.1501569E+07
    4.70   700.000   -3.386E+02    1.1878801E+07   -1.5061529E+03   -1.3440008E-02    1.1867504E+07   -4.1693797E-02    1.1916503E+07
    4.71   700.000   -3.390E+02    1.2256053E+07   -2.7364193E+03   -1.2453084E-02    1.2249176E+07   -4.2668782E-02    1.2305326E+07
    4.72   700.000   -3.394E+02    1.2599011E+07   -3.7683350E+03   -1.1133970E-02    1.2597062E+07   -4.3286823E-02    1.2660992E+07
    4.73   700.000   -3.398E+02    1.2902019E+07   -4.6513407E+03   -9.5336580E-03    1.2905333E+07   -4.3567052E-02    1.2977607E+07
    4.74   700.000   -3.403E+02    1.3160949E+07   -5.4388440E+03   -7.7145534E-03    1.3169637E+07   -4.3536314E-02    1.3250726E+07
    4.75   700.000   -3.407E+02    1.3373339E+07   -6.1831747E+03   -5.7448722E-03    1.3387250E+07   -4.3227325E-02    1.3477504E+07
    4.76   700.000   -3.411E+02    1.3538347E+07   -6.9305871E+03   -3.6930561E-03    1.3557065E+07   -4.2676005E-02    1.3656675E+07
    4.77   700.000   -3.415E+02    1.3656572E+07   -7.7166695E+03   -1.6229784E-03    1.3679425E+07   -4.1918255E-02    1.3788386E+07
    4.78   700.000   -3.419E+02    1.3729752E+07   -8.5626017E+03    4.0945654E-04    1.3755853E+07   -4.0986600E-02    1.3873931E+07
    4.79   700.000   -3.423E+02    1.3760439E+07   -9.4727635E+03    2.3580002E-03    1.3788732E+07   -3.9907181E-02    1.3915448E+07
    4.80   700.000   -3.427E+02    1.3751690E+07   -1.0434170E+04    4.1860387E-03    1.3781020E+07   -3.8697617E-02    1.3915639E+07
    4.81   700.000   -3.431E+02    1.3706836E+07   -1.1418004E+04    5.8651690E-03    1.3736021E+07   -3.7366209E-02    1.3877571E+07
    4.82   700.000   -3.436E+02    1.3629360E+07   -1.2383166E+04    7.3729004E-03    1.3657260E+07   -3.5912832E-02    1.3804564E+07
    4.83   700.000   -3.440E+02    1.3522854E+07   -1.3281319E+04    8.6901135E-03    1.3548445E+07   -3.4331570E-02    1.3700174E+07
    4.84   700.000   -3.444E+02    1.3391052E+07   -1.4062601E+04    9.7988806E-03    1.3413484E+07   -3.2614856E-02    1.3568216E+07
    4.85   700.000   -3.448E+02    1.3237885E+07   -1.4681038E+04    1.0681121E-02    1.3256526E+07   -3.0758463E-02    1.3412808E+07
    4.86   700.000   -3.452E+02    1.3067511E+07   -1.5098836E+04    1.1318354E-02    1.3081973E+07   -2.8766441E-02    1.3238382E+07
    4.87   700.000   -3.455E+02    1.2884302E+07   -1.5289090E+04    1.1692588E-02    1.2894444E+07   -2.6654987E-02    1.3049635E+07
    4.88   700.000   -3.459E+02    1.2692766E+07   -1.5236851E+04    1.1788155E-02    1.2698678E+07   -2.4454332E-02    1.2851420E+07
    4.89   700.000   -3.463E+02    1.2497407E+07   -1.4938832E+04    1.1594149E-02    1.2499373E+07   -2.2208174E-02    1.2648572E+07
    4.90   700.000   -3.467E+02    1.2302546E+07   -1.4402208E+04    1.1106995E-02    1.2301004E+07   -1.9970698E-02    1.2445714E+07
    4.91   700.000   -3.471E+02    1.2112132E+07   -1.3642955E+04    1.0332650E-02    1.2107615E+07   -1.7801872E-02    1.2247043E+07
    4.92   700.000   -3.475E+02    1.1929545E+07   -1.2684045E+04    9.2879914E-03    1.1922639E+07   -1.5762140E-02    1.2056138E+07
    4.93   700.000   -3.478E+02    1.1757436E+07   -1.1553671E+04    8.0010593E-03    1.1748731E+07   -1.3907840E-02    1.1875802E+07
    4.94   700.000   -3.482E+02    1.1597591E+07   -1.0283508E+04    6.5100652E-03    1.1587646E+07   -1.2288435E-02    1.1707925E+07
    4.95   700.000   -3.486E+02    1.1450832E+07   -8.9069512E+03    4.8612738E-03    1.1440152E+07   -1.0946111E-02    1.1553405E+07
    4.96   700.000   -3.489E+02    1.1316958E+07   -7.4572040E+03    3.1061194E-03    1.1305976E+07   -9.9175831E-03    1.1412095E+07
    4.97   700.000   -3.493E+02    1.1194737E+07   -5.9651143E+03    1.2980390E-03    1.1183808E+07   -9.2372153E-03    1.1282805E+07
    4.98   700.000   -3.497E+02    1.1081959E+07   -4.4567421E+03   -5.1046486E-04    1.1071363E+07   -8.9401549E-03    1.1163358E+07
    4.99   700.000   -3.501E+02    1.0975553E+07   -2.9508071E+03   -2.2701248E-03    1.0965503E+07   -9.0640862E-03    1.1050712E+07
    5.00   700.000   -3.505E+02    1.0871779E+07   -1.4563672E+03   -3.9363547E-03    1.0862441E+07   -9.6485610E-03    1.0941159E+07
# T(K) = 800.00   Npoints =    1001   V(cm^3) =  1.139E-20
   -5.00   800.000    3.633E+02    3.0196418E+06    2.7649216E+03    2.1293967E-03    3.0103385E+06    1.9256958E-03    3.0305801E+06
   -4.99   800.000    3.623E+02    3.0536416E+06    2.5342354E+03    2.0659190E-03    3.0435124E+06    1.9564359E-03    3.0666542E+06
   -4.98   800.000    3.614E+02    3.0831390E+06    2.3038977E+03    1.9731366E-03    3.0722144E+06    1.9266691E-03    3.0980766E+06
   -4.97   800.000    3.604E+02    3.1085795E+06    2.0759613E+03    1.8664766E-03    3.0969119E+06    1.8325673E-03    3.1252998E+06
   -4.96   800.000    3.595E+02    3.1304154E+06    1.8512126E+03    1.7590805E-03    3.1180800E+06    1.6715540E-03    3.1487854E+06
   -4.95   800.000    3.585E+02    3.1490775E+06    1.6292536E+03    1.6607693E-03    3.1361709E+06    1.4427347E-03    3.1689729E+06
   -4.94   800.000    3.576E+02    3.1649470E+06    1.4087320E+03    1.5773562E-03    3.1515845E+06    1.1473611E-03    3.1862497E+06
   -4.93   800.000    3.567E+02    3.1783301E+06    1.1876919E+03    1.5103490E-03    3.1646423E+06    7.8928018E-04    3.2009249E+06
   -4.92   800.000    3.558E+02    3.1894385E+06    9.6399807E+02    1.4570512E-03    3.1755663E+06    3.7531478E-04    3.2132092E+06
   -4.91   800.000    3.550E+02    3.1983786E+06    7.3576723E+02    1.4110394E-03    3.1844673E+06   -8.4482808E-05    3.2232039E+06
   -4.90   800.000    3.541E+02    3.2051483E+06    5.0173744E+02    1.3629560E-03    3.1913417E+06   -5.7676224E-04    3.2308988E+06
   -4.89   800.000    3.532E+02    3.2096452E+06    2.6151713E+02    1.3015224E-03    3.1960793E+06   -1.0850469E-03    3.2361813E+06
   -4.88   800.000    3.524E+02    3.2116822E+06    1.5679571E+01    1.2146576E-03    3.1984802E+06   -1.5901919E-03    3.2388542E+06
   -4.87   800.000    3.516E+02    3.2110117E+06   -2.3430036E+02    1.0905713E-03    3.1982794E+06   -2.0711536E-03    3.2386616E+06
   -4.86   800.000    3.507E+02    3.2073537E+06   -4.8623990E+02    9.1871461E-04    3.1951763E+06   -2.5060682E-03    3.2353182E+06
   -4.85   800.000    3.499E+02    3.2004256E+06   -7.3752254E+02    6.9049741E-04    3.1888662E+06   -2.8735939E-03    3.2285411E+06
   -4.84   800.000    3.491E+02    3.1899700E+06   -9.8539301E+02    3.9972449E-04    3.1790694E+06   -3.1544270E-03    3.2180778E+06
   -4.83   800.000    3.483E+02    3.1757778E+06   -1.2272170E+03    4.2753916E-05    3.1655557E+06   -3.3328550E-03    3.2037296E+06
   -4.82   800.000    3.475E+02    3.1577046E+06   -1.4606654E+03   -3.8157479E-04    3.1481613E+06   -3.3981812E-03    3.1853667E+06
   -4.81   800.000    3.467E+02    3.1356784E+06   -1.6838021E+03   -8.7216331E-04    3.1267978E+06   -3.3458380E-03    3.1629349E+06
   -4.80   800.000    3.459E+02    3.1097000E+06   -1.8950794E+03   -1.4259384E-03    3.1014526E+06   -3.1780299E-03    3.1364540E+06
   -4.79   800.000    3.452E+02    3.0798360E+06   -2.0932575E+03   -2.0381181E-03    3.0721822E+06   -2.9037901E-03    3.1060092E+06
   -4.78   800.000    3.444E+02    3.0462074E+06   -2.2772768E+03   -2.7024089E-03    3.0391005E+06   -2.5384074E-03    3.0717380E+06
   -4.77   800.000    3.436E+02    3.0089754E+06   -2.4461145E+03   -3.4111170E-03    3.0023645E+06   -2.1022638E-03    3.0338146E+06
   -4.76   800.000    3.429E+02    2.9683260E+06   -2.5986503E+03   -4.1551892E-03    2.9621584E+06   -1.6192035E-03    2.9924348E+06
   -4.75   800.000    3.421E+02    2.9244570E+06   -2.7335623E+03   -4.9242248E-03    2.9186807E+06   -1.1146159E-03    2.9478024E+06
   -4.74   800.000    3.414E+02    2.8775666E+06   -2.8492644E+03   -5.7065070E-03    2.8721319E+06   -6.1345208E-04    2.9001191E+06
   -4.73   800.000    3.407E+02    2.8278457E+06   -2.9438942E+03   -6.4891055E-03    2.8227069E+06   -1.3839905E-04    2.8495775E+06
   -4.72   800.000    3.399E+02    2.7754735E+06   -3.0153519E+03   -7.2580871E-03    2.7705899E+06    2.9159714E-04    2.7963583E+06
   -4.71   800.000    3.392E+02    2.7206149E+06   -3.0613913E+03   -7.9988601E-03    2.7159522E+06    6.6231864E-04    2.7406288E+06
   -4.70   800.000    3.385E+02    2.6634214E+06   -3.0797580E+03   -8.6966542E-03    2.6589516E+06    9.6470723E-04    2.6825442E+06
   -4.69   800.000    3.378E+02    2.6040316E+06   -3.0683657E+03   -9.3371258E-03    2.5997337E+06    1.1947499E-03    2.6222490E+06
   -4.68   800.000    3.371E+02    2.5425737E+06   -3.0254956E+03   -9.9070551E-03    2.5384331E+06    1.3529000E-03    2.5598792E+06
   -4.67   800.000    3.364E+02    2.4791669E+06   -2.9500001E+03   -1.0395087E-02    2.4751753E+06    1.4431695E-03    2.4955632E+06
   -4.66   800.000    3.357E+02    2.4139243E+06   -2.8414891E+03   -1.0792451E-02    2.4100784E+06    1.4720580E-03    2.4294237E+06
   -4.65   800.000    3.351E+02    2.3469543E+06   -2.7004794E+03   -1.1093590E-02    2.3432550E+06    1.4474871E-03    2.3615789E+06
   -4.64   800.000    3.344E+02    2.2783638E+06   -2.5284925E+03   -1.1296608E-02    2.2748150E+06    1.3778835E-03    2.2921445E+06
   -4.63   800.000    3.338E+02    2.2082606E+06   -2.3280923E+03   -1.1403482E-02    2.2048682E+06    1.2715102E-03    2.2212355E+06
   -4.62   800.000    3.331E+02    2.1367574E+06   -2.1028596E+03   -1.1419969E-02    2.1335276E+06    1.1360923E-03    2.1489696E+06
   -4.61   800.000    3.325E+02    2.0639755E+06   -1.8573047E+03   -1.1355198E-02    2.0609143E+06    9.7872365E-04    2.0754712E+06
   -4.60   800.000    3.319E+02    1.9900494E+06   -1.5967210E+03   -1.1220971E-02    1.9871614E+06    8.0599862E-04    2.0008759E+06
   -4.59   800.000    3.313E+02    1.9151316E+06   -1.3269842E+03   -1.1030826E-02    1.9124192E+06    6.2427644E-04    1.9253354E+06
   -4.58   800.000    3.307E+02    1.8393966E+06   -1.0543053E+03   -1.0798974E-02    1.8368601E+06    4.3997607E-04    1.8490225E+06
   -4.57   800.000    3.301E+02    1.7630455E+06   -7.8494849E+02   -1.0539208E-02    1.7606821E+06    2.5980272E-04    1.7721351E+06
   -4.56   800.000    3.296E+02    1.6863076E+06   -5.2493522E+02   -1.0263934E-02    1.6841124E+06    9.0829590E-05    1.6948998E+06
   -4.55   800.000    3.290E+02    1.6094423E+06   -2.7975702E+02   -9.9834043E-03    1.6074080E+06   -5.9608165E-05    1.6175723E+06
   -4.54   800.000    3.285E+02    1.5327374E+06   -5.4125184E+01   -9.7052421E-03    1.5308549E+06   -1.8421159E-04    1.5404371E+06
   -4.53   800.000    3.280E+02    1.4565062E+06    1.4821957E+02   -9.4342811E-03    1.4547652E+06   -2.7617420E-04    1.4638039E+06
   -4.52   800.000    3.275E+02    1.3810815E+06    3.2462140E+02   -9.1727135E-03    1.3794713E+06   -3.2973088E-04    1.3880022E+06
   -4.51   800.000    3.270E+02    1.3068088E+06    4.7354314E+02   -8.9204927E-03    1.3053186E+06   -3.4071423E-04    1.3133743E+06
   -4.50   800.000    3.266E+02    1.2340381E+06    5.9452597E+02   -8.6759123E-03    1.2326577E+06   -3.0702835E-04    1.2402667E+06
   -4.49   800.000    3.261E+02    1.1631150E+06    6.8808997E+02   -8.4362681E-03    1.1618351E+06   -2.2896063E-04    1.1690216E+06
   -4.48   800.000    3.256E+02    1.0943725E+06    7.5559502E+02   -8.1985123E-03    1.0931847E+06   -1.0927639E-04    1.0999686E+06
   -4.47   800.000    3.252E+02    1.0281237E+06    7.9908135E+02   -7.9598211E-03    1.0270211E+06    4.6925527E-05    1.0334176E+06
   -4.46   800.000    3.248E+02    9.6465613E+05    8.2110588E+02   -7.7180245E-03    9.6363291E+05    2.3258183E-04    9.6965324E+05
   -4.45   800.000    3.244E+02    9.0422718E+05    8.2458584E+02   -7.4718713E-03    9.0327864E+05    4.3921153E-04    9.0893043E+05
   -4.44   800.000    3.239E+02    8.4706151E+05    8.1265607E+02   -7.2211309E-03    8.4618400E+05    6.5757079E-04    8.5147193E+05
   -4.43   800.000    3.235E+02    7.9334916E+05    7.8854295E+02   -6.9665507E-03    7.9253994E+05    8.7833587E-04    7.9746673E+05
   -4.42   800.000    3.231E+02    7.4324457E+05    7.5545491E+02   -6.7097015E-03    7.4250171E+05    1.0927387E-03    7.4706903E+05
   -4.41   800.000    3.227E+02    6.9686587E+05    7.1648887E+02   -6.4527470E-03    6.9618816E+05    1.2930937E-03    7.0039764E+05
   -4.40   800.000    3.223E+02    6.5429407E+05    6.7455101E+02   -6.1981720E-03    6.5368098E+05    1.4731778E-03    6.5753509E+05
   -4.39   800.000    3.219E+02    6.1557219E+05    6.3229082E+02   -5.9485005E-03    6.1502378E+05    1.6284481E-03    6.1852662E+05
   -4.38   800.000    3.215E+02    5.8070416E+05    5.9204753E+02   -5.7060270E-03    5.8022104E+05    1.7561046E-03    5.8337883E+05
   -4.37   800.000    3.210E+02    5.4965374E+05    5.5580847E+02   -5.4725836E-03    5.4923694E+05    1.8550190E-03    5.5205832E+05
   -4.36   800.000    3.206E+02    5.2234361E+05    5.2517905E+02   -5.2493550E-03    5.2199448E+05    1.9255626E-03    5.2449049E+05
   -4.35   800.000    3.201E+02    4.9865501E+05    5.0136450E+02   -5.0367533E-03    4.9837509E+05    1.9693658E-03    5.0055890E+05
   -4.34   800.000    3.196E+02    4.7842827E+05    4.8516333E+02   -4.8343576E-03    4.7821915E+05    1.9890436E-03    4.8010556E+05
   -4.33   800.000    3.191E+02    4.6146429E+05    4.7697260E+02   -4.6409174E-03    4.6132749E+05    1.9879133E-03    4.6293237E+05
   -4.32   800.000    3.185E+02    4.4752750E+05    4.7680514E+02   -4.4544152E-03    4.4746435E+05    1.9697272E-03    4.4880393E+05
   -4.31   800.000    3.179E+02    4.3634999E+05    4.8431839E+02   -4.2721772E-03    4.3636159E+05    1.9384352E-03    4.3745192E+05
   -4.30   800.000    3.173E+02    4.2763713E+05    4.9885482E+02   -4.0910216E-03    4.2772427E+05    1.8979852E-03    4.2858079E+05
   -4.29   800.000    3.166E+02    4.2107436E+05    5.1949293E+02   -3.9074321E-03    4.2123753E+05    1.8521652E-03    4.2187480E+05
   -4.28   800.000    3.159E+02    4.1633492E+05    5.4510759E+02   -3.7177458E-03    4.1657422E+05    1.8044841E-03    4.1700596E+05
   -4.27   800.000    3.151E+02    4.1308823E+05    5.7443737E+02   -3.5183506E-03    4.1340330E+05    1.7580878E-03    4.1364258E+05
   -4.26   800.000    3.143E+02    4.1100850E+05    6.0615533E+02   -3.3058846E-03    4.1139831E+05    1.7157020E-03    4.1145800E+05
   -4.25   800.000    3.133E+02    4.0978314E+05    6.3893876E+02   -3.0774358E-03    4.1024580E+05    1.6795970E-03    4.1013898E+05
   -4.24   800.000    3.123E+02    4.0912063E+05    6.7153239E+02   -2.8307339E-03    4.0965307E+05    1.6515660E-03    4.0939354E+05
   -4.23   800.000    3.112E+02    4.0875742E+05    7.0280000E+02   -2.5643249E-03    4.0935508E+05    1.6329154E-03    4.0895770E+05
   -4.22   800.000    3.101E+02    4.0846354E+05    7.3175994E+02   -2.2777147E-03    4.0912010E+05    1.6244618E-03    4.0860094E+05
   -4.21   800.000    3.088E+02    4.0804679E+05    7.5760260E+02   -1.9714677E-03    4.0875391E+05    1.6265362E-03    4.0813024E+05
   -4.20   800.000    3.074E+02    4.0735513E+05    7.7969043E+02   -1.6472439E-03    4.0810242E+05    1.6389939E-03    4.0739235E+05
   -4.19   800.000    3.059E+02    4.0627750E+05    7.9754416E+02   -1.3077694E-03    4.0705251E+05    1.6612297E-03    4.0627453E+05
   -4.18   800.000    3.043E+02    4.0474286E+05    8.1082063E+02   -9.5673734E-04    4.0553136E+05    1.6922011E-03    4.0470365E+05
   -4.17   800.000    3.025E+02    4.0271788E+05    8.1928838E+02   -5.9864979E-04    4.0350416E+05    1.7304585E-03    4.0264381E+05
   -4.16   800.000    3.007E+02    4.0020332E+05    8.2280639E+02   -2.3861560E-04    4.0097068E+05    1.7741884E-03    4.0009297E+05
   -4.15   800.000    2.987E+02    3.9722972E+05    8.2130876E+02    1.1787618E-04    3.9796099E+05    1.8212701E-03    3.9707864E+05
   -4.14   800.000    2.966E+02    3.9385262E+05    8.1479573E+02    4.6518832E-04    3.9453073E+05    1.8693513E-03    3.9365327E+05
   -4.13   800.000    2.943E+02    3.9014780E+05    8.0332896E+02    7.9775842E-04    3.9075628E+05    1.9159432E-03    3.8988964E+05
   -4.12   800.000    2.919E+02    3.8620688E+05    7.8702761E+02    1.1103043E-03    3.8673031E+05    1.9585334E-03    3.8587650E+05
   -4.11   800.000    2.894E+02    3.8213345E+05    7.6606152E+02    1.3980087E-03    3.8255777E+05    1.9947140E-03    3.8171476E+05
   -4.10   800.000    2.868E+02    3.7803979E+05    7.4063873E+02    1.6566843E-03    3.7835250E+05    2.0223150E-03    3.7751426E+05
   -4.09   800.000    2.840E+02    3.7404412E+05    7.1098593E+02    1.8829184E-03    3.7423435E+05    2.0395338E-03    3.7339112E+05
   -4.08   800.000    2.812E+02    3.7026826E+05    6.7732210E+02    2.0741975E-03    3.7032670E+05    2.0450490E-03    3.6946535E+05
   -4.07   800.000    2.782E+02    3.6683538E+05    6.3982707E+02    2.2290051E-03    3.6675411E+05    2.0381063E-03    3.6585869E+05
   -4.06   800.000    2.751E+02    3.6386771E+05    5.9860758E+02    2.3468863E-03    3.6363996E+05    2.0185676E-03    3.6269238E+05
   -4.05   800.000    2.719E+02    3.6148407E+05    5.5366433E+02    2.4284694E-03    3.6110396E+05    1.9869147E-03    3.6008471E+05
   -4.04   800.000    2.686E+02    3.5979715E+05    5.0486359E+02    2.4754381E-03    3.5925943E+05    1.9442046E-03    3.5814846E+05
   -4.03   800.000    2.652E+02    3.5891077E+05    4.5191714E+02    2.4904511E-03    3.5821063E+05    1.8919778E-03    3.5698818E+05
   -4.02   800.000    2.617E+02    3.5891724E+05    3.9437390E+02    2.4770118E-03    3.5805015E+05    1.8321242E-03    3.5669768E+05
   -4.01   800.000    2.582E+02    3.5989525E+05    3.3162646E+02    2.4392946E-03    3.5885692E+05    1.7667181E-03    3.5735791E+05
   -4.00   800.000    2.546E+02    3.6190841E+05    2.6293411E+02    2.3819415E-03    3.6069481E+05    1.6978369E-03    3.5903561E+05
   -3.99   800.000    2.509E+02    3.6500489E+05    1.8746333E+02    2.3098420E-03    3.6361238E+05    1.6273818E-03    3.6178283E+05
   -3.98   800.000    2.472E+02    3.6921810E+05    1.0434437E+02    2.2279128E-03    3.6764359E+05    1.5569183E-03    3.6563752E+05
   -3.97   800.000    2.434E+02    3.7456846E+05    1.2741328E+01    2.1408925E-03    3.7280967E+05    1.4875559E-03    3.7062523E+05
   -3.96   800.000    2.396E+02    3.8106606E+05   -8.8068758E+01    2.0531641E-03    3.7912176E+05    1.4198796E-03    3.7676150E+05
   -3.95   800.000    2.358E+02    3.8871404E+05   -1.9861302E+02    1.9686163E-03    3.8658433E+05    1.3539403E-03    3.8405500E+05
   -3.94   800.000    2.319E+02    3.9751210E+05   -3.1914186E+02    1.8905497E-03    3.9519866E+05    1.2893037E-03    3.9251086E+05
   -3.93   800.000    2.280E+02    4.0746009E+05   -4.4955532E+02    1.8216315E-03    4.0496640E+05    1.2251499E-03    4.0213398E+05
   -3.92   800.000    2.241E+02    4.1856097E+05   -5.8934101E+02    1.7638929E-03    4.1589253E+05    1.1604064E-03    4.1293192E+05
   -3.91   800.000    2.202E+02    4.3082324E+05   -7.3752679E+02    1.7187635E-03    4.2798768E+05    1.0938953E-03    4.2491712E+05
   -3.90   800.000    2.163E+02    4.4426223E+05   -8.9265014E+02    1.6871300E-03    4.4126940E+05    1.0244752E-03    4.3810820E+05
   -3.89   800.000    2.124E+02    4.5890043E+05   -1.0527459E+03    1.6694072E-03    4.5576234E+05    9.5115849E-04    4.5253027E+05
   -3.88   800.000    2.085E+02    4.7476653E+05   -1.2153539E+03    1.6656108E-03    4.7149728E+05    8.7319513E-04    4.6821401E+05
   -3.87   800.000    2.046E+02    4.9189342E+05   -1.3775477E+03    1.6754261E-03    4.8850890E+05    7.9011900E-04    4.8519365E+05
   -3.86   800.000    2.008E+02    5.1031506E+05   -1.5359889E+03    1.6982711E-03    5.0683258E+05    7.0176313E-04    5.0350391E+05
   -3.85   800.000    1.970E+02    5.3006246E+05   -1.6870083E+03    1.7333567E-03    5.2650030E+05    6.0825486E-04    5.2317596E+05
   -3.84   800.000    1.933E+02    5.5115918E+05   -1.8267164E+03    1.7797498E-03    5.4753599E+05    5.1000516E-04    5.4423288E+05
   -3.83   800.000    1.896E+02    5.7361648E+05   -1.9511447E+03    1.8364409E-03    5.6995070E+05    4.0770454E-04    5.6668479E+05
   -3.82   800.000    1.860E+02    5.9742877E+05   -2.0564129E+03    1.9024140E-03    5.9373803E+05    3.0233347E-04    5.9052428E+05
   -3.81   800.000    1.824E+02    6.2256975E+05   -2.1389175E+03    1.9767140E-03    6.1887035E+05    1.9518738E-04    6.1572250E+05
   -3.80   800.000    1.790E+02    6.4898962E+05   -2.1955296E+03    2.0584964E-03    6.4529612E+05    8.7909133E-05    6.4222643E+05
   -3.79   800.000    1.756E+02    6.7661379E+05   -2.2237892E+03    2.1470496E-03    6.7293873E+05   -1.7484682E-05    6.6995763E+05
   -3.78   800.000    1.724E+02    7.0534323E+05   -2.2220805E+03    2.2417745E-03    7.0169710E+05   -1.1860056E-04    6.9881274E+05
   -3.77   800.000    1.693E+02    7.3505664E+05   -2.1897741E+03    2.3421182E-03    7.3144792E+05   -2.1270400E-04    7.2866577E+05
   -3.76   800.000    1.663E+02    7.6561412E+05   -2.1273229E+03    2.4474598E-03    7.6204953E+05   -2.9680600E-04    7.5937198E+05
   -3.75   800.000    1.634E+02    7.9686235E+05   -2.0363039E+03    2.5569583E-03    7.9334722E+05   -3.6780374E-04    7.9077332E+05
   -3.74   800.000    1.606E+02    8.2864093E+05   -1.9194014E+03    2.6693778E-03    8.2517960E+05   -4.2266989E-04    8.2270485E+05
   -3.73   800.000    1.580E+02    8.6078932E+05   -1.7803323E+03    2.7829123E-03    8.5738562E+05   -4.5867654E-04    8.5500198E+05
   -3.72   800.000    1.555E+02    8.9315431E+05   -1.6237196E+03    2.8950359E-03    8.8981198E+05   -4.7363384E-04    8.8750796E+05
   -3.71   800.000    1.531E+02    9.2559692E+05   -1.4549199E+03    3.0024018E-03    9.2232007E+05   -4.6612126E-04    9.2008093E+05
   -3.70   800.000    1.508E+02    9.5799855E+05   -1.2798157E+03    3.1008156E-03    9.5479198E+05   -4.3569053E-04    9.5259995E+05
   -3.69   800.000    1.487E+02    9.9026509E+05   -1.1045837E+03    3.1852927E-03    9.8713461E+05   -3.8302386E-04    9.8496920E+05
   -3.68   800.000    1.467E+02    1.0223286E+06   -9.3544927E+02    3.2502070E-03    1.0192813E+06   -3.1003556E-04    1.0171195E+06
   -3.67   800.000    1.448E+02    1.0541460E+06   -7.7844110E+02    3.2895174E-03    1.0511901E+06   -2.1991007E-04    1.0490066E+06
   -3.66   800.000    1.430E+02    1.0856941E+06   -6.3915974E+02    3.2970541E-03    1.0828393E+06   -1.1707184E-04    1.0806069E+06
   -3.65   800.000    1.413E+02    1.1169633E+06   -5.2257579E+02    3.2668317E-03    1.1142201E+06   -7.0839435E-06    1.1119099E+06
   -3.64   800.000    1.397E+02    1.1479483E+06   -4.3287487E+02    3.1933620E-03    1.1453277E+06    1.0352719E-04    1.1429095E+06
   -3.63   800.000    1.382E+02    1.1786404E+06   -3.7336520E+02    3.0719348E-03    1.1761535E+06    2.0752290E-04    1.1735963E+06
   -3.62   800.000    1.368E+02    1.2090213E+06   -3.4646091E+02    2.8988539E-03    1.2066777E+06    2.9727786E-04    1.2039507E+06
   -3.61   800.000    1.354E+02    1.2390595E+06   -3.5374689E+02    2.6716200E-03    1.2368667E+06    3.6517324E-04    1.2339397E+06
   -3.60   800.000    1.342E+02    1.2687116E+06   -3.9612090E+02    2.3890669E-03    1.2666733E+06    4.0404179E-04    1.2635180E+06
   -3.59   800.000    1.330E+02    1.2979254E+06   -4.7399443E+02    2.0514644E-03    1.2960406E+06    4.0763846E-04    1.2926313E+06
   -3.58   800.000    1.318E+02    1.3266463E+06   -5.8751942E+02    1.6605971E-03    1.3249077E+06    3.7109906E-04    1.3212224E+06
   -3.57   800.000    1.307E+02    1.3548220E+06   -7.3679515E+02    1.2198272E-03    1.3532154E+06    2.9134055E-04    1.3492366E+06
   -3.56   800.000    1.296E+02    1.3824060E+06   -9.2200398E+02    7.3413486E-04    1.3809093E+06    1.6735318E-04    1.3766250E+06
   -3.55   800.000    1.286E+02    1.4093564E+06   -1.1434291E+03    2.1011991E-04    1.4079398E+06    3.3880988E-07    1.4033438E+06
   -3.54   800.000    1.276E+02    1.4356312E+06   -1.4013240E+03   -3.4405850E-04    1.4342573E+06   -2.0633697E-04    1.4293502E+06
   -3.53   800.000    1.267E+02    1.4611791E+06   -1.6956334E+03   -9.1883183E-04    1.4598039E+06   -4.4738999E-04    1.4545935E+06
   -3.52   800.000    1.258E+02    1.4859298E+06   -2.0255991E+03   -1.5034807E-03    1.4845038E+06   -7.1604465E-04    1.4790057E+06
   -3.51   800.000    1.248E+02    1.5097841E+06   -2.3893215E+03   -2.0865080E-03    1.5082544E+06   -1.0046004E-03    1.5024923E+06
   -3.50   800.000    1.240E+02    1.5326086E+06   -2.7833712E+03   -2.6561124E-03    1.5309209E+06   -1.3050729E-03    1.5249268E+06
   -3.49   800.000    1.231E+02    1.5542348E+06   -3.2025542E+03   -3.2007278E-03    1.5523357E+06   -1.6098313E-03    1.5461504E+06
   -3.48   800.000    1.222E+02    1.5744651E+06   -3.6399158E+03   -3.7095755E-03    1.5723047E+06   -1.9121528E-03    1.5659770E+06
   -3.47   800.000    1.213E+02    1.5930838E+06   -4.0870310E+03   -4.1731690E-03    1.5906174E+06   -2.2066265E-03    1.5842039E+06
   -3.46   800.000    1.205E+02    1.6098721E+06   -4.5345751E+03   -4.5837101E-03    1.6070625E+06   -2.4893620E-03    1.6006258E+06
   -3.45   800.000    1.196E+02    1.6246248E+06   -4.9731082E+03   -4.9353318E-03    1.6214432E+06   -2.7579878E-03    1.6150508E+06
   -3.44   800.000    1.187E+02    1.6371657E+06   -5.3939617E+03   -5.2241629E-03    1.6335929E+06   -3.0114559E-03    1.6273149E+06
   -3.43   800.000    1.179E+02    1.6473603E+06   -5.7900884E+03   -5.4482197E-03    1.6433865E+06   -3.2496977E-03    1.6372931E+06
   -3.42   800.000    1.170E+02    1.6551237E+06   -6.1567382E+03   -5.6071535E-03    1.6507480E+06   -3.4731958E-03    1.6449074E+06
   -3.41   800.000    1.161E+02    1.6604230E+06   -6.4918527E+03   -5.7019059E-03    1.6556528E+06   -3.6825457E-03    1.6501288E+06
   -3.40   800.000    1.153E+02    1.6632756E+06   -6.7961113E+03   -5.7343314E-03    1.6581258E+06   -3.8780746E-03    1.6529754E+06
   -3.39   800.000    1.144E+02    1.6637437E+06   -7.0726173E+03   -5.7068472E-03    1.6582349E+06   -4.0595739E-03    1.6535071E+06
   -3.38   800.000    1.135E+02    1.6619265E+06   -7.3262603E+03   -5.6221563E-03    1.6560844E+06   -4.2261737E-03    1.6518190E+06
   -3.37   800.000    1.126E+02    1.6579523E+06   -7.5628337E+03   -5.4830763E-03    1.6518066E+06   -4.3763639E-03    1.6480335E+06
   -3.36   800.000    1.117E+02    1.6519717E+06   -7.7880178E+03   -5.2924787E-03    1.6455554E+06   -4.5081368E-03    1.6422943E+06
   -3.35   800.000    1.107E+02    1.6441525E+06   -8.0063574E+03   -5.0533265E-03    1.6375011E+06   -4.6192090E-03    1.6347622E+06
   -3.34   800.000    1.098E+02    1.6346769E+06   -8.2203724E+03   -4.7687792E-03    1.6278281E+06   -4.7072672E-03    1.6256125E+06
   -3.33   800.000    1.089E+02    1.6237403E+06   -8.4299286E+03   -4.4423251E-03    1.6167336E+06   -4.7701888E-03    1.6150342E+06
   -3.32   800.000    1.079E+02    1.6115511E+06   -8.6319704E+03   -4.0778953E-03    1.6044271E+06   -4.8061973E-03    1.6032301E+06
   -3.31   800.000    1.070E+02    1.5983296E+06   -8.8206714E+03   -3.6799259E-03    1.5911299E+06   -4.8139372E-03    1.5904155E+06
   -3.30   800.000    1.060E+02    1.5843059E+06   -8.9879953E+03   -3.2533433E-03    1.5770718E+06   -4.7924746E-03    1.5768162E+06
   -3.29   800.000    1.050E+02    1.5697147E+06   -9.1245931E+03   -2.8034703E-03    1.5624865E+06   -4.7412470E-03    1.5626633E+06
   -3.28   800.000    1.040E+02    1.5547879E+06   -9.2209046E+03   -2.3358681E-03    1.5476038E+06   -4.6599983E-03    1.5481851E+06
   -3.27   800.000    1.030E+02    1.5397438E+06   -9.2682947E+03   -1.8561461E-03    1.5326389E+06   -4.5487314E-03    1.5335974E+06
   -3.26   800.000    1.020E+02    1.5247764E+06   -9.2600546E+03   -1.3697802E-03    1.5177812E+06   -4.4077032E-03    1.5190907E+06
   -3.25   800.000    1.010E+02    1.5100426E+06   -9.1921317E+03   -8.8198071E-04    1.5031825E+06   -4.2374718E-03    1.5048191E+06
   -3.24   800.000    1.000E+02    1.4956522E+06   -9.0635085E+03   -3.9763654E-04    1.4889467E+06   -4.0389873E-03    1.4908889E+06
   -3.23   800.000    9.897E+01    1.4816608E+06   -8.8762246E+03    7.8652091E-05    1.4751228E+06   -3.8137078E-03    1.4773517E+06
   -3.22   800.000    9.794E+01    1.4680661E+06   -8.6350915E+03    5.4246596E-04    1.4617024E+06   -3.5637094E-03    1.4642003E+06
   -3.21   800.000    9.690E+01    1.4548109E+06   -8.3471940E+03    9.8941702E-04    1.4486219E+06   -3.2917613E-03    1.4513721E+06
   -3.20   800.000    9.585E+01    1.4417903E+06   -8.0212818E+03    1.4150032E-03    1.4357707E+06   -3.0013381E-03    1.4387558E+06
   -3.19   800.000    9.479E+01    1.4288650E+06   -7.6671428E+03    1.8145175E-03    1.4230041E+06   -2.6965518E-03    1.4262048E+06
   -3.18   800.000    9.373E+01    1.4158770E+06   -7.2950251E+03    2.1830516E-03    1.4101593E+06   -2.3819989E-03    1.4135541E+06
   -3.17   800.000    9.265E+01    1.4026691E+06   -6.9151428E+03    2.5156156E-03    1.3970748E+06   -2.0625329E-03    1.4006390E+06
   -3.16   800.000    9.156E+01    1.3891024E+06   -6.5372748E+03    2.8073691E-03    1.3836080E+06   -1.7429861E-03    1.3873148E+06
   -3.15   800.000    9.046E+01    1.3750743E+06   -6.1704504E+03    3.0539352E-03    1.3696527E+06   -1.4278759E-03    1.3734738E+06
   -3.14   800.000    8.935E+01    1.3605305E+06   -5.8227072E+03    3.2517486E-03    1.3551518E+06   -1.1211350E-03    1.3590591E+06
   -3.13   800.000    8.822E+01    1.3454741E+06   -5.5009074E+03    3.3983775E-03    1.3401060E+06   -8.2590420E-04    1.3440733E+06
   -3.12   800.000    8.707E+01    1.3299681E+06   -5.2106004E+03    3.4927621E-03    1.3245759E+06   -5.4441521E-04    1.3285809E+06
   -3.11   800.000    8.590E+01    1.3141326E+06   -4.9559230E+03    3.5353230E-03    1.3086797E+06   -2.7797896E-04    1.3127059E+06
   -3.10   800.000    8.471E+01    1.2981369E+06   -4.7395318E+03    3.5279152E-03    1.2925856E+06   -2.7075328E-05    1.2966226E+06
   -3.09   800.000    8.349E+01    1.2821880E+06   -4.5625635E+03    3.4736271E-03    1.2764994E+06    2.0847272E-04    1.2805442E+06
   -3.08   800.000    8.225E+01    1.2665160E+06   -4.4246240E+03    3.3764518E-03    1.2606506E+06    4.2926937E-04    1.2647069E+06
   -3.07   800.000    8.097E+01    1.2513593E+06   -4.3238115E+03    3.2408746E-03    1.2452775E+06    6.3609292E-04    1.2493548E+06
   -3.06   800.000    7.966E+01    1.2369496E+06   -4.2567821E+03    3.0714344E-03    1.2306125E+06    8.2965003E-04    1.2347243E+06
   -3.05   800.000    7.832E+01    1.2234995E+06   -4.2188740E+03    2.8723175E-03    1.2168699E+06    1.0103606E-03    1.2210318E+06
   -3.04   800.000    7.694E+01    1.2111937E+06   -4.2043007E+03    2.6470335E-03    1.2042367E+06    1.1781886E-03    1.2084643E+06
   -3.03   800.000    7.552E+01    1.2001831E+06   -4.2064238E+03    2.3982078E-03    1.1928681E+06    1.3325254E-03    1.1971737E+06
   -3.02   800.000    7.406E+01    1.1905834E+06   -4.2181037E+03    2.1275066E-03    1.1828851E+06    1.4721289E-03    1.1872761E+06
   -3.01   800.000    7.255E+01    1.1824771E+06   -4.2321128E+03    1.8356925E-03    1.1743773E+06    1.5951170E-03    1.1788538E+06
   -3.00   800.000    7.100E+01    1.1759179E+06   -4.2415815E+03    1.5227903E-03    1.1674071E+06    1.6990167E-03    1.1719598E+06
   -2.99   800.000    6.940E+01    1.1709366E+06   -4.2404363E+03    1.1883369E-03    1.1620153E+06    1.7808683E-03    1.1666243E+06
   -2.98   800.000    6.776E+01    1.1675471E+06   -4.2237816E+03    8.3167769E-04    1.1582266E+06    1.8373829E-03    1.1628609E+06
   -2.97   800.000    6.607E+01    1.1657513E+06   -4.1881794E+03    4.5227796E-04    1.1560548E+06    1.8651478E-03    1.1606715E+06
   -2.96   800.000    6.433E+01    1.1655425E+06   -4.1317931E+03    5.0016084E-05    1.1555045E+06    1.8608645E-03    1.1600499E+06
   -2.95   800.000    6.254E+01    1.1669064E+06   -4.0543794E+03   -3.7456549E-04    1.1565718E+06    1.8215988E-03    1.1609824E+06
   -2.94   800.000    6.071E+01    1.1698189E+06   -3.9571298E+03   -8.2006860E-04    1.1592420E+06    1.7450140E-03    1.1634462E+06
   -2.93   800.000    5.885E+01    1.1742434E+06   -3.8423864E+03   -1.2841164E-03    1.1634855E+06    1.6295580E-03    1.1674058E+06
   -2.92   800.000    5.694E+01    1.1801255E+06   -3.7132704E+03   -1.7633009E-03    1.1692522E+06    1.4745777E-03    1.1728078E+06
   -2.91   800.000    5.501E+01    1.1873871E+06   -3.5732682E+03   -2.2531961E-03    1.1764656E+06    1.2803473E-03    1.1795754E+06
   -2.90   800.000    5.305E+01    1.1959214E+06   -3.4258240E+03   -2.7484291E-03    1.1850176E+06    1.0480080E-03    1.1876031E+06
   -2.89   800.000    5.107E+01    1.2055883E+06   -3.2739840E+03   -3.2427972E-03    1.1947643E+06    7.7943639E-04    1.1967523E+06
   -2.88   800.000    4.908E+01    1.2162120E+06   -3.1201277E+03   -3.7294210E-03    1.2055238E+06    4.7706898E-04    1.2068497E+06
   -2.87   800.000    4.708E+01    1.2275812E+06   -2.9658094E+03   -4.2009227E-03    1.2170773E+06    1.4372056E-04    1.2176870E+06
   -2.86   800.000    4.509E+01    1.2394514E+06   -2.8117240E+03   -4.6496252E-03    1.2291718E+06   -2.1756605E-04    1.2290244E+06
   -2.85   800.000    4.311E+01    1.2515503E+06   -2.6577907E+03   -5.0677667E-03    1.2415269E+06   -6.0360744E-04    1.2405963E+06
   -2.84   800.000    4.115E+01    1.2635855E+06   -2.5033408E+03   -5.4477328E-03    1.2538425E+06   -1.0110860E-03    1.2521187E+06
   -2.83   800.000    3.922E+01    1.2752541E+06   -2.3473817E+03   -5.7823052E-03    1.2658089E+06   -1.4364740E-03    1.2632990E+06
   -2.82   800.000    3.733E+01    1.2862523E+06   -2.1889052E+03   -6.0649277E-03    1.2771172E+06   -1.8758936E-03    1.2738462E+06
   -2.81   800.000    3.548E+01    1.2962861E+06   -2.0272013E+03   -6.2899835E-03    1.2874698E+06   -2.3249449E-03    1.2834799E+06
   -2.80   800.000    3.368E+01    1.3050805E+06   -1.8621431E+03   -6.4530730E-03    1.2965894E+06   -2.7785488E-03    1.2919395E+06
   -2.79   800.000    3.193E+01    1.3123865E+06   -1.6944098E+03   -6.5512721E-03    1.3042259E+06   -3.2308528E-03    1.2989909E+06
   -2.78   800.000    3.025E+01    1.3179875E+06   -1.5256198E+03   -6.5833497E-03    1.3101622E+06   -3.6752448E-03    1.3044308E+06
   -2.77   800.000    2.862E+01    1.3217018E+06   -1.3583544E+03   -6.5499159E-03    1.3142166E+06   -4.1045060E-03    1.3080892E+06
   -2.76   800.000    2.707E+01    1.3233839E+06   -1.1960634E+03   -6.4534799E-03    1.3162437E+06   -4.5111125E-03    1.3098294E+06
   -2.75   800.000    2.558E+01    1.3229244E+06   -1.0428518E+03   -6.2984018E-03    1.3161334E+06   -4.8876694E-03    1.3095471E+06
   -2.74   800.000    2.416E+01    1.3202472E+06   -9.0316671E+02   -6.0907319E-03    1.3138085E+06   -5.2274354E-03    1.3071675E+06
   -2.73   800.000    2.280E+01    1.3153075E+06   -7.8141343E+02   -5.8379463E-03    1.3092222E+06   -5.5248735E-03    1.3026429E+06
   -2.72   800.000    2.152E+01    1.3080893E+06   -6.8154413E+02   -5.5485936E-03    1.3023553E+06   -5.7761515E-03    1.2959497E+06
   -2.71   800.000    2.030E+01    1.2986023E+06   -6.0666881E+02   -5.2318790E-03    1.2932136E+06   -5.9795149E-03    1.2870866E+06
   -2.70   800.000    1.915E+01    1.2868808E+06   -5.5873770E+02   -4.8972144E-03    1.2818269E+06   -6.1354679E-03    1.2760732E+06
   -2.69   800.000    1.806E+01    1.2729821E+06   -5.3833439E+02   -4.5537655E-03    1.2682474E+06   -6.2467222E-03    1.2629497E+06
   -2.68   800.000    1.703E+01    1.2569857E+06   -5.4460255E+02   -4.2100269E-03    1.2525493E+06   -6.3179059E-03    1.2477765E+06
   -2.67   800.000    1.606E+01    1.2389920E+06   -5.7530868E+02   -3.8734540E-03    1.2348282E+06   -6.3550568E-03    1.2306344E+06
   -2.66   800.000    1.514E+01    1.2191203E+06   -6.2702469E+02   -3.5501757E-03    1.2151989E+06   -6.3649598E-03    1.2116232E+06
   -2.65   800.000    1.427E+01    1.1975063E+06   -6.9540048E+02   -3.2448111E-03    1.1937936E+06   -6.3544064E-03    1.1908597E+06
   -2.64   800.000    1.345E+01    1.1742966E+06   -7.7549043E+02   -2.9604026E-03    1.1707565E+06   -6.3294708E-03    1.1684742E+06
   -2.63   800.000    1.268E+01    1.1496442E+06   -8.6209860E+02   -2.6984717E-03    1.1462392E+06   -6.2948937E-03    1.1446050E+06
   -2.62   800.000    1.196E+01    1.1237006E+06   -9.5011229E+02   -2.4591920E-03    1.1203933E+06   -6.2536515E-03    1.1193926E+06
   -2.61   800.000    1.127E+01    1.0966101E+06   -1.0347998E+03   -2.2416617E-03    1.0933643E+06   -6.2067662E-03    1.0929729E+06
   -2.60   800.000    1.062E+01    1.0685034E+06   -1.1120538E+03   -2.0442471E-03    1.0652851E+06   -6.1533761E-03    1.0654716E+06
   -2.59   800.000    1.001E+01    1.0394933E+06   -1.1785650E+03   -1.8649597E-03    1.0362717E+06   -6.0910565E-03    1.0369995E+06
   -2.58   800.000    9.432E+00    1.0096729E+06   -1.2319167E+03   -1.7018243E-03    1.0064211E+06   -6.0163411E-03    1.0076502E+06
   -2.57   800.000    8.886E+00    9.7911570E+05   -1.2705948E+03   -1.5531937E-03    9.7581121E+05   -5.9253722E-03    9.7749987E+05
   -2.56   800.000    8.370E+00    9.4787848E+05   -1.2939169E+03   -1.4179693E-03    9.4450348E+05   -5.8145865E-03    9.4660943E+05
   -2.55   800.000    7.881E+00    9.1600543E+05   -1.3018937E+03   -1.2957014E-03    9.1254708E+05   -5.6813437E-03    9.1502818E+05
   -2.54   800.000    7.420E+00    8.8353373E+05   -1.2950480E+03   -1.1865520E-03    8.7998422E+05   -5.5244111E-03    8.8279886E+05
   -2.53   800.000    6.983E+00    8.5049930E+05   -1.2742218E+03   -1.0911323E-03    8.4685590E+05   -5.3442451E-03    8.4996300E+05
   -2.52   800.000    6.569E+00    8.1694228E+05   -1.2404041E+03   -1.0102405E-03    8.1320730E+05   -5.1430381E-03    8.1656613E+05
   -2.51   800.000    6.178E+00    7.8291178E+05   -1.1946098E+03   -9.4455143E-04    7.7909242E+05   -4.9245381E-03    7.8266231E+05
   -2.50   800.000    5.808E+00    7.4846949E+05   -1.1378223E+03   -8.9431432E-04    7.4457759E+05   -4.6936768E-03    7.4831773E+05
   -2.49   800.000    5.457E+00    7.1369200E+05   -1.0710029E+03   -8.5911591E-04    7.0974366E+05   -4.4560688E-03    7.1361296E+05
   -2.48   800.000    5.126E+00    6.7867186E+05   -9.9515041E+02   -8.3775226E-04    6.7468685E+05   -4.2174556E-03    6.7864410E+05
   -2.47   800.000    4.813E+00    6.4351733E+05   -9.1138493E+02   -8.2822900E-04    6.3951835E+05   -3.9831705E-03    6.4352252E+05
   -2.46   800.000    4.517E+00    6.0835099E+05   -8.2102648E+02   -8.2788496E-04    6.0436274E+05   -3.7576884E-03    6.0837357E+05
   -2.45   800.000    4.238E+00    5.7330742E+05   -7.2564304E+02   -8.3361170E-04    5.6935567E+05   -3.5443093E-03    5.7333434E+05
   -2.44   800.000    3.975E+00    5.3853023E+05   -6.2705197E+02   -8.4212743E-04    5.3464079E+05   -3.3449996E-03    5.3855077E+05
   -2.43   800.000    3.728E+00    5.0416874E+05   -5.2727138E+02   -8.5026030E-04    5.0036654E+05   -3.1603948E-03    5.0417438E+05
   -2.42   800.000    3.495E+00    4.7037448E+05   -4.2842920E+02   -8.5520138E-04    4.6668278E+05   -2.9899428E-03    4.7035881E+05
   -2.41   800.000    3.277E+00    4.3729783E+05   -3.3264529E+02   -8.5469872E-04    4.3373754E+05   -2.8321549E-03    4.3725648E+05
   -2.40   800.000    3.073E+00    4.0508479E+05   -2.4190545E+02   -8.4717737E-04    4.0167403E+05   -2.6849187E-03    4.0501537E+05
   -2.39   800.000    2.882E+00    3.7387409E+05   -1.5794526E+02   -8.3178234E-04    3.7062787E+05   -2.5458296E-03    3.7377601E+05
   -2.38   800.000    2.705E+00    3.4379434E+05   -8.2158084E+01   -8.0835120E-04    3.4072443E+05   -2.4124975E-03    3.4366867E+05
   -2.37   800.000    2.540E+00    3.1496162E+05   -1.5535856E+01   -7.7732962E-04    3.1207649E+05   -2.2827995E-03    3.1481079E+05
   -2.36   800.000    2.387E+00    2.8747707E+05    4.1354210E+01   -7.3964687E-04    2.8478201E+05   -2.1550581E-03    2.8730459E+05
   -2.35   800.000    2.246E+00    2.6142495E+05    8.8358852E+01   -6.9656965E-04    2.5892220E+05   -2.0281394E-03    2.6123506E+05
   -2.34   800.000    2.116E+00    2.3687092E+05    1.2569961E+02   -6.4955210E-04    2.3455994E+05   -1.9014759E-03    2.3666824E+05
   -2.33   800.000    1.998E+00    2.1386092E+05    1.5391300E+02   -6.0009711E-04    2.1173864E+05   -1.7750248E-03    2.1365017E+05
   -2.32   800.000    1.889E+00    1.9242060E+05    1.7377857E+02   -5.4964054E-04    1.9048177E+05   -1.6491820E-03    1.9220627E+05
   -2.31   800.000    1.791E+00    1.7255539E+05    1.8624283E+02   -4.9946490E-04    1.7079293E+05   -1.5246673E-03    1.7234162E+05
   -2.30   800.000    1.701E+00    1.5425136E+05    1.9234589E+02   -4.5064475E-04    1.5265674E+05   -1.4024019E-03    1.5404173E+05
   -2.29   800.000    1.620E+00    1.3747667E+05    1.9315597E+02   -4.0402166E-04    1.3604023E+05   -1.2833899E-03    1.3727413E+05
   -2.28   800.000    1.548E+00    1.2218354E+05    1.8971500E+02   -3.6020379E-04    1.2089490E+05   -1.1686174E-03    1.2199042E+05
   -2.27   800.000    1.482E+00    1.0831078E+05    1.8299696E+02   -3.1958368E-04    1.0715911E+05   -1.0589730E-03    1.0812877E+05
   -2.26   800.000    1.424E+00    9.5786392E+04    1.7387918E+02   -2.8236746E-04    9.4760743E+04   -9.5519369E-04    9.5616608E+04
   -2.25   800.000    1.372E+00    8.4530447E+04    1.6312545E+02   -2.4860952E-04    8.3619943E+04   -8.5783474E-04    8.4373503E+04
   -2.24   800.000    1.326E+00    7.4457742E+04    1.5137948E+02   -2.1824779E-04    7.3651802E+04   -7.6725973E-04    7.4313828E+04
   -2.23   800.000    1.285E+00    6.5480355E+04    1.3916635E+02   -1.9113661E-04    6.4768842E+04   -6.8364724E-04    6.5349319E+04
   -2.22   800.000    1.249E+00    5.7509883E+04    1.2689995E+02   -1.6707507E-04    5.6883211E+04   -6.0700872E-04    5.7391310E+04
   -2.21   800.000    1.217E+00    5.0459349E+04    1.1489424E+02   -1.4583011E-04    4.9908560E+04   -5.3721322E-04    5.0352633E+04
   -2.20   800.000    1.189E+00    4.4244743E+04    1.0337646E+02   -1.2715444E-04    4.3761545E+04   -4.7401514E-04    4.4149147E+04
   -2.19   800.000    1.164E+00    3.8786210E+04    9.2501170E+01   -1.1079972E-04    3.8362998E+04   -4.1708214E-04    3.8700919E+04
   -2.18   800.000    1.142E+00    3.4008910E+04    8.2363666E+01   -9.6525710E-05    3.3638758E+04   -3.6602108E-04    3.3933069E+04
   -2.17   800.000    1.123E+00    2.9843580E+04    7.3012496E+01   -8.4106224E-05    2.9520223E+04   -3.2040083E-04    2.9776330E+04
   -2.16   800.000    1.106E+00    2.6226862E+04    6.4460398E+01   -7.3332644E-05    2.5944665E+04   -2.7977132E-04    2.6167361E+04
   -2.15   800.000    1.092E+00    2.3101428E+04    5.6693642E+01   -6.4015647E-05    2.2855346E+04   -2.4367879E-04    2.3048865E+04
   -2.14   800.000    1.079E+00    2.0415952E+04    4.9679738E+01   -5.5985688E-05    2.0201487E+04   -2.1167741E-04    2.0369564E+04
   -2.13   800.000    1.067E+00    1.8124982E+04    4.3373616E+01   -4.9092666E-05    1.7938139E+04   -1.8333761E-04    1.8084054E+04
   -2.12   800.000    1.057E+00    1.6188733E+04    3.7722458E+01   -4.3205099E-05    1.6025971E+04   -1.5825169E-04    1.6152604E+04
   -2.11   800.000    1.048E+00    1.4572836E+04    3.2669372E+01   -3.8209034E-05    1.4431030E+04   -1.3603717E-04    1.4540901E+04
   -2.10   800.000    1.040E+00    1.3248080E+04    2.8156104E+01   -3.4006868E-05    1.3124469E+04   -1.1633832E-04    1.3219784E+04
   -2.09   800.000    1.033E+00    1.2190142E+04    2.4124981E+01   -3.0516193E-05    1.2082297E+04   -9.8826303E-05    1.2164982E+04
   -2.08   800.000    1.027E+00    1.1379349E+04    2.0520250E+01   -2.7668750E-05    1.1285129E+04   -8.3198338E-05    1.1356864E+04
   -2.07   800.000    1.021E+00    1.0800457E+04    1.7288962E+01   -2.5409543E-05    1.0717977E+04   -6.9176075E-05    1.0780228E+04
   -2.06   800.000    1.015E+00    1.0442468E+04    1.4381516E+01   -2.3696171E-05    1.0370069E+04   -5.6503510E-05    1.0424116E+04
   -2.05   800.000    1.010E+00    1.0298499E+04    1.1751981E+01   -2.2498389E-05    1.0234718E+04   -4.4944559E-05    1.0281674E+04
   -2.04   800.000    1.005E+00    1.0365682E+04    9.3582822E+00   -2.1797960E-05    1.0309224E+04   -3.4280456E-05    1.0350062E+04
   -2.03   800.000    1.000E+00    1.0645120E+04    7.1623090E+00   -2.1588800E-05    1.0594837E+04   -2.4307061E-05    1.0630408E+04
   -2.02   800.000    9.952E-01    1.1141887E+04    5.1300376E+00   -2.1877486E-05    1.1096757E+04   -1.4832164E-05    1.1127804E+04
   -2.01   800.000    9.902E-01    1.1865073E+04    3.2317032E+00   -2.2684149E-05    1.1824183E+04   -5.6728318E-06    1.1851359E+04
   -2.00   800.000    9.850E-01    1.2827877E+04    1.4420907E+00   -2.4043818E-05    1.2790401E+04    3.3471656E-06    1.2814283E+04
   -1.99   800.000    9.795E-01    1.4047728E+04   -2.5900946E-01   -2.6008287E-05    1.4012920E+04    1.2399800E-05    1.4034017E+04
   -1.98   800.000    9.737E-01    1.5546450E+04   -1.8861251E+00   -2.8648556E-05    1.5513625E+04    2.1655088E-05    1.5532395E+04
   -1.97   800.000    9.673E-01    1.7350445E+04   -3.4471559E+00   -3.2057950E-05    1.7318969E+04    3.1283200E-05    1.7335825E+04
   -1.96   800.000    9.604E-01    1.9490883E+04   -4.9421081E+00   -3.6355979E-05    1.9460166E+04    4.1456345E-05    1.9475487E+04
   -1.95   800.000    9.527E-01    2.2003903E+04   -6.3614721E+00   -4.1693009E-05    2.1973387E+04    5.2350368E-05    2.1987531E+04
   -1.94   800.000    9.441E-01    2.4930783E+04   -7.6842143E+00   -4.8255816E-05    2.4899938E+04    6.4145976E-05    2.4913243E+04
   -1.93   800.000    9.345E-01    2.8318075E+04   -8.8753871E+00   -5.6274006E-05    2.8286388E+04    7.7029494E-05    2.8299190E+04
   -1.92   800.000    9.237E-01    3.2217670E+04   -9.8833918E+00   -6.6027294E-05    3.2184643E+04    9.1193004E-05    3.2197281E+04
   -1.91   800.000    9.116E-01    3.6686774E+04   -1.0636991E+01   -7.7853502E-05    3.6651920E+04    1.0683366E-04    3.6664747E+04
   -1.90   800.000    8.979E-01    4.1787760E+04   -1.1042238E+01   -9.2157085E-05    4.1750595E+04    1.2415189E-04    4.1763988E+04
   -1.89   800.000    8.826E-01    4.7587861E+04   -1.0979578E+01   -1.0941788E-04    4.7547898E+04    1.4334824E-04    4.7562272E+04
   -1.88   800.000    8.654E-01    5.4158689E+04   -1.0301484E+01   -1.3019971E-04    5.4115434E+04    1.6461811E-04    5.4131250E+04
   -1.87   800.000    8.460E-01    6.1575544E+04   -8.8310877E+00   -1.5515843E-04    6.1528482E+04    1.8814422E-04    6.1546263E+04
   -1.86   800.000    8.243E-01    6.9916504E+04   -6.3623604E+00   -1.8504912E-04    6.9865089E+04    2.1408560E-04    6.9885429E+04
   -1.85   800.000    8.001E-01    7.9261293E+04   -2.6624490E+00   -2.2073236E-04    7.9204930E+04    2.4256262E-04    7.9228511E+04
   -1.84   800.000    7.732E-01    8.9689943E+04    2.5232288E+00   -2.6317986E-04    8.9627961E+04    2.7363700E-04    8.9655566E+04
   -1.83   800.000    7.432E-01    1.0128127E+05    9.4626019E+00   -3.1348040E-04    1.0121290E+05    3.0728581E-04    1.0124542E+05
   -1.82   800.000    7.100E-01    1.1411122E+05    1.8424924E+01   -3.7284774E-04    1.1403554E+05    3.4336871E-04    1.1407402E+05
   -1.81   800.000    6.735E-01    1.2825117E+05    2.9665029E+01   -4.4263278E-04    1.2816710E+05    3.8158776E-04    1.2821271E+05
   -1.80   800.000    6.334E-01    1.4376620E+05    4.3404149E+01   -5.2434254E-04    1.4367242E+05    4.2143956E-04    1.4372654E+05
   -1.79   800.000    5.894E-01    1.6071351E+05    5.9808024E+01   -6.1966831E-04    1.6060845E+05    4.6215994E-04    1.6067265E+05
   -1.78   800.000    5.416E-01    1.7914102E+05    7.8963561E+01   -7.3052387E-04    1.7902281E+05    5.0266255E-04    1.7909895E+05
   -1.77   800.000    4.897E-01    1.9908622E+05    1.0085583E+02   -8.5909188E-04    1.9895269E+05    5.4147387E-04    1.9904295E+05
   -1.76   800.000    4.336E-01    2.2057539E+05    1.2534765E+02   -1.0078727E-03    2.2042404E+05    5.7666963E-04    2.2053106E+05
   -1.75   800.000    3.733E-01    2.4362315E+05    1.5216444E+02   -1.1797241E-03    2.4345116E+05    6.0582071E-04    2.4357812E+05
   -1.74   800.000    3.086E-01    2.6823233E+05    1.8088690E+02   -1.3778762E-03    2.6803662E+05    6.2596072E-04    2.6818740E+05
   -1.73   800.000    2.395E-01    2.9439417E+05    2.1095393E+02   -1.6058988E-03    2.9417144E+05    6.3359168E-04    2.9435078E+05
   -1.72   800.000    1.660E-01    3.2208860E+05    2.4167703E+02   -1.8675994E-03    3.2183541E+05    6.2474727E-04    3.2204906E+05
   -1.71   800.000    8.814E-02    3.5128461E+05    2.7226645E+02   -2.1668307E-03    3.5099745E+05    5.9513327E-04    3.5125233E+05
   -1.70   800.000    5.860E-03    3.8194041E+05    3.0186741E+02   -2.5071931E-03    3.8161584E+05    5.4035987E-04    3.8192016E+05
   -1.69   800.000   -8.080E-02    4.1400356E+05    3.2960339E+02   -2.8916357E-03    4.1363828E+05    4.5627036E-04    4.1400156E+05
   -1.68   800.000   -1.718E-01    4.4741078E+05    3.5462222E+02   -3.3219725E-03    4.4700172E+05    3.3935462E-04    4.4743486E+05
   -1.67   800.000   -2.671E-01    4.8208777E+05    3.7614015E+02   -3.7983548E-03    4.8163220E+05    1.8721720E-04    4.8214731E+05
   -1.66   800.000   -3.666E-01    5.1794922E+05    3.9347898E+02   -4.3187595E-03    5.1744475E+05   -9.4867968E-07    5.1805504E+05
   -1.65   800.000   -4.703E-01    5.5489918E+05    4.0609260E+02   -4.8785619E-03    5.5434373E+05   -2.2394261E-04    5.5506327E+05
   -1.64   800.000   -5.781E-01    5.9283214E+05    4.1358021E+02   -5.4702703E-03    5.9222387E+05   -4.7826020E-04    5.9306727E+05
   -1.63   800.000   -6.900E-01    6.3163488E+05    4.1568577E+02   -6.0834857E-03    6.3097202E+05   -7.5797739E-04    6.3195412E+05
   -1.62   800.000   -8.058E-01    6.7118912E+05    4.1228511E+02   -6.7051345E-03    6.7046971E+05   -1.0548581E-03    6.7160518E+05
   -1.61   800.000   -9.256E-01    7.1137464E+05    4.0336441E+02   -7.3199892E-03    7.1059622E+05   -1.3587011E-03    7.1189921E+05
   -1.60   800.000   -1.049E+00    7.5207248E+05    3.8899572E+02   -7.9114590E-03    7.5123174E+05   -1.6579112E-03    7.5271543E+05
   -1.59   800.000   -1.176E+00    7.9316752E+05    3.6931613E+02   -8.4625919E-03    7.9225994E+05   -1.9402476E-03    7.9393622E+05
   -1.58   800.000   -1.307E+00    8.3454993E+05    3.4451752E+02   -8.9571975E-03    8.3356952E+05   -2.1936732E-03    8.3544855E+05
   -1.57   800.000   -1.442E+00    8.7611490E+05    3.1485153E+02   -9.3809692E-03    8.7505397E+05   -2.4072082E-03    8.7714386E+05
   -1.56   800.000   -1.580E+00    9.1776036E+05    2.8065125E+02   -9.7224748E-03    9.1660951E+05   -2.5716783E-03    9.1891595E+05
   -1.55   800.000   -1.722E+00    9.5938283E+05    2.4236625E+02   -9.9738812E-03    9.5813107E+05   -2.6802518E-03    9.6065704E+05
   -1.54   800.000   -1.867E+00    1.0008720E+06    2.0060263E+02   -1.0131300E-02    9.9950693E+05   -2.7286762E-03    1.0022524E+06
   -1.53   800.000   -2.016E+00    1.0421045E+06    1.5615651E+02   -1.0194680E-02    1.0406129E+06   -2.7151588E-03    1.0435747E+06
   -1.52   800.000   -2.167E+00    1.0829390E+06    1.1002788E+02   -1.0167210E-02    1.0813068E+06   -2.6398829E-03    1.0844783E+06
   -1.51   800.000   -2.322E+00    1.1232121E+06    6.3404816E+01   -1.0054270E-02    1.1214251E+06   -2.5042066E-03    1.1247963E+06
   -1.50   800.000   -2.481E+00    1.1627387E+06    1.7613352E+01   -9.8620299E-03    1.1607824E+06   -2.3096473E-03    1.1643396E+06
   -1.49   800.000   -2.643E+00    1.2013146E+06   -2.5963573E+01   -9.5958471E-03    1.1991744E+06   -2.0568053E-03    1.2029003E+06
   -1.48   800.000   -2.807E+00    1.2387241E+06   -6.5986564E+01   -9.2586863E-03    1.2363851E+06   -1.7444067E-03    1.2402591E+06
   -1.47   800.000   -2.975E+00    1.2747511E+06   -1.0126174E+02   -8.8498013E-03    1.2721972E+06   -1.3686501E-03    1.2761957E+06
   -1.46   800.000   -3.146E+00    1.3091927E+06   -1.3082386E+02   -8.3639190E-03    1.3064065E+06   -9.2301119E-04    1.3105030E+06
   -1.45   800.000   -3.321E+00    1.3418740E+06   -1.5398228E+02   -7.7911151E-03    1.3388358E+06   -3.9859896E-04    1.3430017E+06
   -1.44   800.000   -3.498E+00    1.3726628E+06   -1.7031853E+02   -7.1174811E-03    1.3693500E+06    2.1492787E-04    1.3735547E+06
   -1.43   800.000   -3.678E+00    1.4014817E+06   -1.7963348E+02   -6.3265615E-03    1.3978689E+06    9.2796807E-04    1.4020801E+06
   -1.42   800.000   -3.861E+00    1.4283180E+06   -1.8185312E+02   -5.4014090E-03    1.4243761E+06    1.7492801E-03    1.4285600E+06
   -1.41   800.000   -4.047E+00    1.4532279E+06   -1.7690995E+02   -4.3269927E-03    1.4489247E+06    2.6842120E-03    1.4530460E+06
   -1.40   800.000   -4.235E+00    1.4763377E+06   -1.6462172E+02   -3.0926245E-03    1.4716381E+06    3.7331164E-03    1.4756595E+06
   -1.39   800.000   -4.427E+00    1.4978394E+06   -1.4458868E+02   -1.6940530E-03    1.4927062E+06    4.8901919E-03    1.4965879E+06
   -1.38   800.000   -4.621E+00    1.5179840E+06   -1.1612603E+02   -1.3492331E-04    1.5123785E+06    6.1429341E-03    1.5160781E+06
   -1.37   800.000   -4.818E+00    1.5370712E+06   -7.8240888E+01    1.5726045E-03    1.5309547E+06    7.4722947E-03    1.5344264E+06
   -1.36   800.000   -5.018E+00    1.5554385E+06   -2.9655178E+01    3.4081558E-03    1.5487730E+06    8.8535404E-03    1.5519678E+06
   -1.35   800.000   -5.221E+00    1.5734495E+06    3.1131193E+01    5.3443029E-03    1.5661988E+06    1.0257706E-02    1.5690645E+06
   -1.34   800.000   -5.427E+00    1.5914825E+06    1.0574721E+02    7.3484118E-03    1.5836134E+06    1.1653450E-02    1.5860951E+06
   -1.33   800.000   -5.635E+00    1.6099215E+06    1.9584094E+02    9.3849132E-03    1.6014044E+06    1.3009056E-02    1.6034451E+06
   -1.32   800.000   -5.846E+00    1.6291470E+06    3.0296683E+02    1.1417700E-02    1.6199568E+06    1.4294342E-02    1.6214982E+06
   -1.31   800.000   -6.061E+00    1.6495304E+06    4.2848311E+02    1.3412366E-02    1.6396466E+06    1.5482229E-02    1.6406293E+06
   -1.30   800.000   -6.278E+00    1.6714278E+06    5.7347001E+02    1.5338056E-02    1.6608344E+06    1.6549821E-02    1.6611990E+06
   -1.29   800.000   -6.498E+00    1.6951758E+06    7.3867576E+02    1.7168795E-02    1.6838612E+06    1.7478944E-02    1.6835483E+06
   -1.28   800.000   -6.720E+00    1.7210866E+06    9.2449277E+02    1.8884247E-02    1.7090431E+06    1.8256173E-02    1.7079934E+06
   -1.27   800.000   -6.946E+00    1.7494435E+06    1.1309609E+03    2.0469985E-02    1.7366663E+06    1.8872461E-02    1.7348207E+06
   -1.26   800.000   -7.174E+00    1.7804952E+06    1.3577892E+03    2.1917367E-02    1.7669819E+06    1.9322563E-02    1.7642818E+06
   -1.25   800.000   -7.405E+00    1.8144495E+06    1.6043841E+03    2.3223213E-02    1.8001994E+06    1.9604402E-02    1.7965872E+06
   -1.24   800.000   -7.638E+00    1.8514656E+06    1.8698687E+03    2.4389378E-02    1.8364801E+06    1.9718528E-02    1.8319006E+06
   -1.23   800.000   -7.874E+00    1.8916473E+06    2.1530814E+03    2.5422359E-02    1.8759293E+06    1.9667743E-02    1.8703325E+06
   -1.22   800.000   -8.113E+00    1.9350340E+06    2.4525441E+03    2.6332915E-02    1.9185895E+06    1.9456889E-02    1.9119341E+06
   -1.21   800.000   -8.354E+00    1.9815938E+06    2.7664003E+03    2.7135684E-02    1.9644332E+06    1.9092761E-02    1.9566915E+06
   -1.20   800.000   -8.598E+00    2.0312163E+06    3.0923304E+03    2.7848684E-02    2.0133565E+06    1.8584063E-02    2.0045205E+06
   -1.19   800.000   -8.844E+00    2.0837076E+06    3.4274640E+03    2.8492600E-02    2.0651743E+06    1.7941315E-02    2.0552630E+06
   -1.18   800.000   -9.093E+00    2.1387874E+06    3.7683153E+03    2.9089760E-02    2.1196181E+06    1.7176679E-02    2.1086838E+06
   -1.17   800.000   -9.345E+00    2.1960894E+06    4.1107729E+03    2.9662773E-02    2.1763361E+06    1.6303651E-02    2.1644714E+06
   -1.16   800.000   -9.599E+00    2.2551671E+06    4.4501705E+03    3.0232860E-02    2.2348979E+06    1.5336649E-02    2.2222402E+06
   -1.15   800.000   -9.856E+00    2.3155028E+06    4.7814558E+03    3.0817976E-02    2.2948037E+06    1.4290506E-02    2.2815379E+06
   -1.14   800.000   -1.012E+01    2.3765247E+06    5.0994538E+03    3.1430914E-02    2.3554989E+06    1.3179907E-02    2.3418569E+06
   -1.13   800.000   -1.038E+01    2.4376279E+06    5.3992030E+03    3.2077591E-02    2.4163943E+06    1.2018812E-02    2.4026508E+06
   -1.12   800.000   -1.065E+01    2.4982017E+06    5.6763250E+03    3.2755768E-02    2.4768916E+06    1.0819892E-02    2.4633562E+06
   -1.11   800.000   -1.091E+01    2.5576602E+06    5.9273771E+03    3.3454428E-02    2.5364125E+06    9.5940173E-03    2.5234177E+06
   -1.10   800.000   -1.119E+01    2.6154746E+06    6.1501461E+03    3.4153990E-02    2.5944294E+06    8.3498584E-03    2.5823168E+06
   -1.09   800.000   -1.146E+01    2.6712037E+06    6.3438507E+03    3.4827467E-02    2.6504958E+06    7.0936468E-03    2.6396000E+06
   -1.08   800.000   -1.174E+01    2.7245206E+06    6.5092426E+03    3.5442540E-02    2.7042725E+06    5.8291515E-03    2.6949052E+06
   -1.07   800.000   -1.202E+01    2.7752314E+06    6.6486148E+03    3.5964397E-02    2.7555474E+06    4.5579046E-03    2.7479832E+06
   -1.06   800.000   -1.230E+01    2.8232849E+06    6.7657352E+03    3.6359053E-02    2.8042465E+06    3.2796744E-03    2.7987114E+06
   -1.05   800.000   -1.259E+01    2.8687718E+06    6.8657278E+03    3.6596756E-02    2.8504346E+06    1.9931381E-03    2.8470985E+06
   -1.04   800.000   -1.288E+01    2.9119121E+06    6.9549111E+03    3.6655069E-02    2.8943049E+06    6.9666788E-04    2.8932790E+06
   -1.03   800.000   -1.317E+01    2.9530333E+06    7.0405951E+03    3.6521201E-02    2.9361587E+06   -6.1088695E-04    2.9374975E+06
   -1.02   800.000   -1.347E+01    2.9925390E+06    7.1308263E+03    3.6193324E-02    2.9763758E+06   -1.9295374E-03    2.9800826E+06
   -1.01   800.000   -1.377E+01    3.0308717E+06    7.2340653E+03    3.5680711E-02    3.0153780E+06   -3.2577088E-03    3.0214141E+06
   -1.00   800.000   -1.407E+01    3.0684720E+06    7.3587886E+03    3.5002736E-02    3.0535896E+06   -4.5920631E-03    3.0618847E+06
   -0.99   800.000   -1.437E+01    3.1057385E+06    7.5130124E+03    3.4186928E-02    3.0913967E+06   -5.9275924E-03    3.1018602E+06
   -0.98   800.000   -1.468E+01    3.1429915E+06    7.7037538E+03    3.3266378E-02    3.1291117E+06   -7.2579364E-03    3.1416430E+06
   -0.97   800.000   -1.499E+01    3.1804457E+06    7.9364491E+03    3.2276834E-02    3.1669450E+06   -8.5758453E-03    3.1814425E+06
   -0.96   800.000   -1.530E+01    3.2181951E+06    8.2143638E+03    3.1253833E-02    3.2049903E+06   -9.8736984E-03    3.2213572E+06
   -0.95   800.000   -1.562E+01    3.2562121E+06    8.5380311E+03    3.0230130E-02    3.2432231E+06   -1.1144000E-02    3.2613715E+06
   -0.94   800.000   -1.594E+01    3.2943637E+06    8.9047669E+03    2.9233658E-02    3.2815164E+06   -1.2379803E-02    3.3013679E+06
   -0.93   800.000   -1.626E+01    3.3324415E+06    9.3083145E+03    2.8286119E-02    3.3196708E+06   -1.3575052E-02    3.3411556E+06
   -0.92   800.000   -1.659E+01    3.3702037E+06    9.7386821E+03    2.7402297E-02    3.3574562E+06   -1.4724859E-02    3.3805099E+06
   -0.91   800.000   -1.692E+01    3.4074234E+06    1.0182231E+04    2.6590067E-02    3.3946601E+06   -1.5825751E-02    3.4192195E+06
   -0.90   800.000   -1.725E+01    3.4439365E+06    1.0622066E+04    2.5851065E-02    3.4311354E+06   -1.6875910E-02    3.4571346E+06
   -0.89   800.000   -1.759E+01    3.4796823E+06    1.1038739E+04    2.5181878E-02    3.4668408E+06   -1.7875402E-02    3.4942075E+06
   -0.88   800.000   -1.793E+01    3.5147314E+06    1.1411266E+04    2.4575583E-02    3.5018688E+06   -1.8826345E-02    3.5305214E+06
   -0.87   800.000   -1.828E+01    3.5492956E+06    1.1718369E+04    2.4023413E-02    3.5364551E+06   -1.9732950E-02    3.5663014E+06
   -0.86   800.000   -1.863E+01    3.5837194E+06    1.1939854E+04    2.3516301E-02    3.5709699E+06   -2.0601362E-02    3.6019069E+06
   -0.85   800.000   -1.898E+01    3.6184538E+06    1.2057987E+04    2.3046092E-02    3.6058907E+06   -2.1439233E-02    3.6378057E+06
   -0.84   800.000   -1.934E+01    3.6540169E+06    1.2058710E+04    2.2606273E-02    3.6417624E+06   -2.2255020E-02    3.6745342E+06
   -0.83   800.000   -1.970E+01    3.6909458E+06    1.1932568E+04    2.2192163E-02    3.6791480E+06   -2.3057066E-02    3.7126489E+06
   -0.82   800.000   -2.007E+01    3.7297485E+06    1.1675242E+04    2.1800627E-02    3.7185791E+06   -2.3852543E-02    3.7526763E+06
   -0.81   800.000   -2.044E+01    3.7708588E+06    1.1287614E+04    2.1429459E-02    3.7605097E+06   -2.4646390E-02    3.7950665E+06
   -0.80   800.000   -2.081E+01    3.8146013E+06    1.0775392E+04    2.1076641E-02    3.8052798E+06   -2.5440380E-02    3.8401565E+06
   -0.79   800.000   -2.119E+01    3.8611676E+06    1.0148334E+04    2.0739694E-02    3.8530909E+06   -2.6232435E-02    3.8881444E+06
   -0.78   800.000   -2.157E+01    3.9106046E+06    9.4191924E+03    2.0415267E-02    3.9039936E+06   -2.7016272E-02    3.9390776E+06
   -0.77   800.000   -2.196E+01    3.9628146E+06    8.6025284E+03    2.0099080E-02    3.9578879E+06   -2.7781431E-02    3.9928523E+06
   -0.76   800.000   -2.235E+01    4.0175647E+06    7.7135493E+03    1.9786185E-02    4.0145322E+06   -2.8513703E-02    4.0492239E+06
   -0.75   800.000   -2.274E+01    4.0745029E+06    6.7671136E+03    1.9471470E-02    4.0735614E+06   -2.9195905E-02    4.1078249E+06
   -0.74   800.000   -2.314E+01    4.1331798E+06    5.7770189E+03    1.9150252E-02    4.1345088E+06   -2.9808943E-02    4.1681884E+06
   -0.73   800.000   -2.355E+01    4.1930725E+06    4.7556342E+03    1.8818826E-02    4.1968320E+06   -3.0333033E-02    4.2297746E+06
   -0.72   800.000   -2.396E+01    4.2536107E+06    3.7138813E+03    1.8474832E-02    4.2599398E+06   -3.0748947E-02    4.2919990E+06
   -0.71   800.000   -2.437E+01    4.3142026E+06    2.6615145E+03    1.8117395E-02    4.3232200E+06   -3.1039116E-02    4.3542596E+06
   -0.70   800.000   -2.479E+01    4.3742607E+06    1.6075969E+03    1.7747065E-02    4.3860652E+06   -3.1188463E-02    4.4159643E+06
   -0.69   800.000   -2.521E+01    4.4332261E+06    5.6104245E+02    1.7365593E-02    4.4478978E+06   -3.1184837E-02    4.4765544E+06
   -0.68   800.000   -2.564E+01    4.4905904E+06   -4.6890803E+02    1.6975665E-02    4.5081916E+06   -3.1019022E-02    4.5355267E+06
   -0.67   800.000   -2.607E+01    4.5459148E+06   -1.4723896E+03    1.6580647E-02    4.5664896E+06   -3.0684344E-02    4.5924495E+06
   -0.66   800.000   -2.651E+01    4.5988431E+06   -2.4388592E+03    1.6184390E-02    4.6224165E+06   -3.0175977E-02    4.6469754E+06
   -0.65   800.000   -2.695E+01    4.6491109E+06   -3.3572945E+03    1.5791082E-02    4.6756850E+06   -2.9490116E-02    4.6988466E+06
   -0.64   800.000   -2.739E+01    4.6965464E+06   -4.2166059E+03    1.5405113E-02    4.7260964E+06   -2.8623210E-02    4.7478945E+06
   -0.63   800.000   -2.784E+01    4.7410663E+06   -5.0061826E+03    1.5030864E-02    4.7735342E+06   -2.7571468E-02    4.7940330E+06
   -0.62   800.000   -2.829E+01    4.7826640E+06   -5.7164840E+03    1.4672366E-02    4.8179525E+06   -2.6330766E-02    4.8372466E+06
   -0.61   800.000   -2.874E+01    4.8213944E+06   -6.3395965E+03    1.4332805E-02    4.8593607E+06   -2.4897082E-02    4.8775735E+06
   -0.60   800.000   -2.920E+01    4.8573561E+06   -6.8696952E+03    1.4013837E-02    4.8978072E+06   -2.3267444E-02    4.9150891E+06
   -0.59   800.000   -2.966E+01    4.8906725E+06   -7.3033806E+03    1.3714818E-02    4.9333630E+06   -2.1441328E-02    4.9498877E+06
   -0.58   800.000   -3.012E+01    4.9214766E+06   -7.6398791E+03    1.3432006E-02    4.9661088E+06   -1.9422336E-02    4.9820689E+06
   -0.57   800.000   -3.058E+01    4.9498981E+06   -7.8811104E+03    1.3157902E-02    4.9961264E+06   -1.7219956E-02    5.0117270E+06
   -0.56   800.000   -3.104E+01    4.9760562E+06   -8.0316286E+03    1.2880876E-02    5.0234941E+06   -1.4851150E-02    5.0389455E+06
   -0.55   800.000   -3.150E+01    5.0000568E+06   -8.0984468E+03    1.2585210E-02    5.0482872E+06   -1.2341537E-02    5.0637971E+06
   -0.54   800.000   -3.197E+01    5.0219936E+06   -8.0907518E+03    1.2251650E-02    5.0705814E+06   -9.7259743E-03    5.0863464E+06
   -0.53   800.000   -3.243E+01    5.0419518E+06   -8.0195257E+03    1.1858474E-02    5.0904573E+06   -7.0483566E-03    5.1066556E+06
   -0.52   800.000   -3.290E+01    5.0600123E+06   -7.8970888E+03    1.1383013E-02    5.1080055E+06   -4.3605921E-03    5.1247907E+06
   -0.51   800.000   -3.336E+01    5.0762562E+06   -7.7365895E+03    1.0803449E-02    5.1233292E+06   -1.7207453E-03    5.1408266E+06
   -0.50   800.000   -3.383E+01    5.0907666E+06   -7.5514608E+03    1.0100693E-02    5.1365453E+06    8.0952358E-04    5.1548501E+06
   -0.49   800.000   -3.429E+01    5.1036285E+06   -7.3548593E+03    9.2601123E-03    5.1477815E+06    3.1680229E-03    5.1669609E+06
   -0.48   800.000   -3.475E+01    5.1149271E+06   -7.1590910E+03    8.2728774E-03    5.1571715E+06    5.2953200E-03    5.1772688E+06
   -0.47   800.000   -3.522E+01    5.1247440E+06   -6.9750191E+03    7.1367862E-03    5.1648483E+06    7.1379519E-03    5.1858892E+06
   -0.46   800.000   -3.568E+01    5.1331519E+06   -6.8114505E+03    5.8564802E-03    5.1709364E+06    8.6512594E-03    5.1929371E+06
   -0.45   800.000   -3.614E+01    5.1402112E+06   -6.6745039E+03    4.4430584E-03    5.1755455E+06    9.8016003E-03    5.1985209E+06
   -0.44   800.000   -3.660E+01    5.1459661E+06   -6.5669943E+03    2.9131783E-03    5.1787651E+06    1.0567775E-02    5.2027370E+06
   -0.43   800.000   -3.705E+01    5.1504450E+06   -6.4878962E+03    1.2877921E-03    5.1806632E+06    1.0941584E-02    5.2056664E+06
   -0.42   800.000   -3.751E+01    5.1536621E+06   -6.4319855E+03   -4.0930073E-04    5.1812879E+06    1.0927529E-02    5.2073746E+06
   -0.41   800.000   -3.796E+01    5.1556248E+06   -6.3897774E+03   -2.1529053E-03    5.1806745E+06    1.0541720E-02    5.2079154E+06
   -0.40   800.000   -3.842E+01    5.1563423E+06   -6.3478707E+03   -3.9177391E-03    5.1788550E+06    9.8101161E-03    5.2073380E+06
   -0.39   800.000   -3.887E+01    5.1558380E+06   -6.2897669E+03   -5.6795022E-03    5.1758714E+06    8.7662625E-03    5.2056967E+06
   -0.38   800.000   -3.931E+01    5.1541615E+06   -6.1971633E+03   -7.4156768E-03    5.1717888E+06    7.4487081E-03    5.2030619E+06
   -0.37   800.000   -3.976E+01    5.1513992E+06   -6.0516254E+03   -9.1060788E-03    5.1667078E+06    5.8983182E-03    5.1995301E+06
   -0.36   800.000   -4.020E+01    5.1476800E+06   -5.8364615E+03   -1.0733218E-02    5.1607711E+06    4.1557036E-03    5.1952304E+06
   -0.35   800.000   -4.064E+01    5.1431761E+06   -5.5385607E+03   -1.2282538E-02    5.1541651E+06    2.2589738E-03    5.1903248E+06
   -0.34   800.000   -4.108E+01    5.1380947E+06   -5.1499392E+03   -1.3742582E-02    5.1471134E+06    2.4199022E-04    5.1850030E+06
   -0.33   800.000   -4.151E+01    5.1326650E+06   -4.6687738E+03   -1.5105122E-02    5.1398627E+06   -1.8667744E-03    5.1794699E+06
   -0.32   800.000   -4.195E+01    5.1271179E+06   -4.0997770E+03   -1.6365245E-02    5.1326628E+06   -4.0447348E-03    5.1739281E+06
   -0.31   800.000   -4.238E+01    5.1216640E+06   -3.4538694E+03   -1.7521359E-02    5.1257441E+06   -6.2750968E-03    5.1685577E+06
   -0.30   800.000   -4.281E+01    5.1164720E+06   -2.7472129E+03   -1.8575103E-02    5.1192939E+06   -8.5462665E-03    5.1634959E+06
   -0.29   800.000   -4.324E+01    5.1116498E+06   -1.9997575E+03   -1.9531110E-02    5.1134367E+06   -1.0850897E-02    5.1588199E+06
   -0.28   800.000   -4.367E+01    5.1072314E+06   -1.2335191E+03   -2.0396628E-02    5.1082190E+06   -1.3184698E-02    5.1545350E+06
   -0.27   800.000   -4.410E+01    5.1031707E+06   -4.7082128E+02   -2.1180984E-02    5.1036019E+06   -1.5545119E-02    5.1505689E+06
   -0.26   800.000   -4.453E+01    5.0993413E+06    2.6728075E+02   -2.1894948E-02    5.0994603E+06   -1.7929979E-02    5.1467726E+06
   -0.25   800.000   -4.495E+01    5.0955427E+06    9.6223420E+02   -2.2550004E-02    5.0955883E+06   -2.0336109E-02    5.1429270E+06
   -0.24   800.000   -4.538E+01    5.0915104E+06    1.5987956E+03   -2.3157596E-02    5.0917097E+06   -2.2758060E-02    5.1387535E+06
   -0.23   800.000   -4.582E+01    5.0869286E+06    2.1654061E+03   -2.3728378E-02    5.0874919E+06   -2.5186963E-02    5.1339273E+06
   -0.22   800.000   -4.625E+01    5.0814457E+06    2.6541976E+03   -2.4271512E-02    5.0825618E+06   -2.7609616E-02    5.1280927E+06
   -0.21   800.000   -4.668E+01    5.0746897E+06    3.0607364E+03   -2.4794019E-02    5.0765238E+06   -3.0007908E-02    5.1208793E+06
   -0.20   800.000   -4.712E+01    5.0662868E+06    3.3836226E+03   -2.5300201E-02    5.0689782E+06   -3.2358661E-02    5.1119192E+06
   -0.19   800.000   -4.756E+01    5.0558802E+06    3.6240546E+03   -2.5791118E-02    5.0595429E+06   -3.4633952E-02    5.1008663E+06
   -0.18   800.000   -4.801E+01    5.0431529E+06    3.7854410E+03   -2.6264130E-02    5.0478755E+06   -3.6801926E-02    5.0874174E+06
   -0.17   800.000   -4.845E+01    5.0278517E+06    3.8731110E+03   -2.6712511E-02    5.0336987E+06   -3.8828038E-02    5.0713348E+06
   -0.16   800.000   -4.891E+01    5.0098115E+06    3.8941414E+03   -2.7125168E-02    5.0168247E+06   -4.0676625E-02    5.0524696E+06
   -0.15   800.000   -4.936E+01    4.9889797E+06    3.8572926E+03   -2.7486537E-02    4.9971794E+06   -4.2312633E-02    5.0307844E+06
   -0.14   800.000   -4.983E+01    4.9654355E+06    3.7730180E+03   -2.7776722E-02    4.9748218E+06   -4.3703313E-02    5.0063716E+06
   -0.13   800.000   -5.030E+01    4.9394031E+06    3.6534910E+03   -2.7971960E-02    4.9499573E+06   -4.4819699E-02    4.9794655E+06
   -0.12   800.000   -5.077E+01    4.9112555E+06    3.5125776E+03   -2.8045470E-02    4.9229414E+06   -4.5637686E-02    4.9504457E+06
   -0.11   800.000   -5.126E+01    4.8815077E+06    3.3656816E+03   -2.7968673E-02    4.8942727E+06   -4.6138626E-02    4.9198300E+06
   -0.10   800.000   -5.175E+01    4.8507987E+06    3.2293951E+03   -2.7712764E-02    4.8645750E+06   -4.6309405E-02    4.8882567E+06
   -0.09   800.000   -5.224E+01    4.8198624E+06    3.1209208E+03   -2.7250523E-02    4.8345689E+06   -4.6142091E-02    4.8564556E+06
   -0.08   800.000   -5.275E+01    4.7894907E+06    3.0572672E+03   -2.6558241E-02    4.8050338E+06   -4.5633286E-02    4.8252116E+06
   -0.07   800.000   -5.326E+01    4.7604894E+06    3.0542658E+03   -2.5617619E-02    4.7767650E+06   -4.4783414E-02    4.7953213E+06
   -0.06   800.000   -5.378E+01    4.7336321E+06    3.1254986E+03   -2.4417497E-02    4.7505270E+06   -4.3596154E-02    4.7675471E+06
   -0.05   800.000   -5.431E+01    4.7096138E+06    3.2812497E+03   -2.2955291E-02    4.7270076E+06   -4.2078215E-02    4.7425717E+06
   -0.04   800.000   -5.485E+01    4.6890097E+06    3.5276051E+03   -2.1238054E-02    4.7067765E+06   -4.0239565E-02    4.7209568E+06
   -0.03   800.000   -5.540E+01    4.6722396E+06    3.8658073E+03   -1.9283090E-02    4.6902506E+06   -3.8094128E-02    4.7031092E+06
   -0.02   800.000   -5.595E+01    4.6595444E+06    4.2919434E+03   -1.7118077E-02    4.6776698E+06   -3.5660845E-02    4.6892568E+06
   -0.01   800.000   -5.651E+01    4.6509724E+06    4.7970058E+03   -1.4780697E-02    4.6690844E+06   -3.2964903E-02    4.6794369E+06
    0.00   800.000   -5.708E+01    4.6463804E+06    5.3673174E+03   -1.2317783E-02    4.6643556E+06   -3.0038850E-02    4.6734977E+06
    0.01   800.000   -5.766E+01    4.6454467E+06    5.9852791E+03   -9.7839995E-03    4.6631692E+06   -2.6923338E-02    4.6711121E+06
    0.02   800.000   -5.825E+01    4.6476971E+06    6.6303637E+03   -7.2401393E-03    4.6650612E+06   -2.3667228E-02    4.6718049E+06
    0.03   800.000   -5.884E+01    4.6525410E+06    7.2802609E+03   -4.7510968E-03    4.6694545E+06   -2.0326893E-02    4.6749892E+06
    0.04   800.000   -5.944E+01    4.6593161E+06    7.9120683E+03   -2.3836002E-03    4.6757030E+06   -1.6964686E-02    4.6800116E+06
    0.05   800.000   -6.005E+01    4.6673384E+06    8.5034289E+03   -2.0378498E-04    4.6831411E+06   -1.3646604E-02    4.6862018E+06
    0.06   800.000   -6.066E+01    4.6759535E+06    9.0335240E+03    1.7253300E-03    4.6911352E+06   -1.0439374E-02    4.6929239E+06
    0.07   800.000   -6.128E+01    4.6845864E+06    9.4838630E+03    3.3464013E-03    4.6991326E+06   -7.4071764E-03    4.6996251E+06
    0.08   800.000   -6.190E+01    4.6927852E+06    9.8388370E+03    4.6102931E-03    4.7067044E+06   -4.6083512E-03    4.7058784E+06
    0.09   800.000   -6.253E+01    4.7002552E+06    1.0086045E+04    5.4784957E-03    4.7135792E+06   -2.0923734E-03    4.7114155E+06
    0.10   800.000   -6.316E+01    4.7068802E+06    1.0216425E+04    5.9253060E-03    4.7196640E+06    1.0262409E-04    4.7161474E+06
    0.11   800.000   -6.380E+01    4.7127293E+06    1.0224240E+04    5.9396036E-03    4.7250492E+06    1.9515785E-03    4.7201695E+06
    0.12   800.000   -6.445E+01    4.7180472E+06    1.0106979E+04    5.5260298E-03    4.7299997E+06    3.4433638E-03    4.7237516E+06
    0.13   800.000   -6.510E+01    4.7232301E+06    9.8651973E+03    4.7053794E-03    4.7349291E+06    4.5807791E-03    4.7273135E+06
    0.14   800.000   -6.575E+01    4.7287886E+06    9.5023356E+03    3.5140658E-03    4.7403631E+06    5.3797273E-03    4.7313877E+06
    0.15   800.000   -6.641E+01    4.7353021E+06    9.0245001E+03    2.0026088E-03    4.7468927E+06    5.8677205E-03    4.7365737E+06
    0.16   800.000   -6.708E+01    4.7433685E+06    8.4402179E+03    2.3321987E-04    4.7551251E+06    6.0818932E-03    4.7434883E+06
    0.17   800.000   -6.775E+01    4.7535547E+06    7.7601560E+03   -1.7233167E-03    4.7656332E+06    6.0667164E-03    4.7527165E+06
    0.18   800.000   -6.843E+01    4.7663525E+06    6.9968164E+03   -3.7911590E-03    4.7789122E+06    5.8716069E-03    4.7647670E+06
    0.19   800.000   -6.912E+01    4.7821415E+06    6.1642173E+03   -5.8929587E-03    4.7953424E+06    5.5486012E-03    4.7800350E+06
    0.20   800.000   -6.981E+01    4.8011622E+06    5.2775680E+03   -7.9531012E-03    4.8151623E+06    5.1502382E-03    4.7987750E+06
    0.21   800.000   -7.051E+01    4.8235000E+06    4.3529259E+03   -9.9003694E-03    4.8384525E+06    4.7277543E-03    4.8210834E+06
    0.22   800.000   -7.122E+01    4.8490791E+06    3.4068038E+03   -1.1669902E-02    4.8651289E+06    4.3296551E-03    4.8468914E+06
    0.23   800.000   -7.193E+01    4.8776666E+06    2.4556831E+03   -1.3204473E-02    4.8949457E+06    4.0006773E-03    4.8759675E+06
    0.24   800.000   -7.265E+01    4.9088848E+06    1.5153967E+03   -1.4455248E-02    4.9275080E+06    3.7811090E-03    4.9079296E+06
    0.25   800.000   -7.337E+01    4.9422338E+06    6.0037691E+02   -1.5382259E-02    4.9622926E+06    3.7063968E-03    4.9422662E+06
    0.26   800.000   -7.410E+01    4.9771194E+06   -2.7718417E+02   -1.5954807E-02    4.9986763E+06    3.8069489E-03    4.9783653E+06
    0.27   800.000   -7.484E+01    5.0128890E+06   -1.1081641E+03   -1.6151957E-02    5.0359720E+06    4.1080435E-03    5.0155507E+06
    0.28   800.000   -7.558E+01    5.0488706E+06   -1.8871922E+03   -1.5963105E-02    5.0734679E+06    4.6297791E-03    5.0531221E+06
    0.29   800.000   -7.632E+01    5.0844128E+06   -2.6130447E+03   -1.5388527E-02    5.1104702E+06    5.3870454E-03    5.0903976E+06
    0.30   800.000   -7.707E+01    5.1189229E+06   -3.2886429E+03   -1.4439653E-02    5.1463421E+06    6.3895347E-03    5.1267532E+06
    0.31   800.000   -7.783E+01    5.1518983E+06   -3.9206082E+03   -1.3138846E-02    5.1805383E+06    7.6418425E-03    5.1616554E+06
    0.32   800.000   -7.859E+01    5.1829493E+06   -4.5183995E+03   -1.1518491E-02    5.2126291E+06    9.1437065E-03    5.1946849E+06
    0.33   800.000   -7.936E+01    5.2118099E+06   -5.0931287E+03   -9.6193535E-03    5.2423144E+06    1.0890401E-02    5.2255474E+06
    0.34   800.000   -8.013E+01    5.2383373E+06   -5.6561908E+03   -7.4883084E-03    5.2694234E+06    1.2873247E-02    5.2540716E+06
    0.35   800.000   -8.090E+01    5.2625001E+06   -6.2178617E+03   -5.1757123E-03    5.2939038E+06    1.5080136E-02    5.2801962E+06
    0.36   800.000   -8.168E+01    5.2843565E+06   -6.7860000E+03   -2.7327685E-03    5.3158004E+06    1.7495914E-02    5.3039460E+06
    0.37   800.000   -8.247E+01    5.3040269E+06   -7.3649564E+03   -2.0926813E-04    5.3352267E+06    2.0102446E-02    5.3254035E+06
    0.38   800.000   -8.326E+01    5.3216626E+06   -7.9547625E+03    2.3479859E-03    5.3523339E+06    2.2878243E-02    5.3446765E+06
    0.39   800.000   -8.405E+01    5.3374150E+06   -8.5506392E+03    4.8959037E-03    5.3672782E+06    2.5797568E-02    5.3618673E+06
    0.40   800.000   -8.485E+01    5.3514068E+06   -9.1428530E+03    7.3949896E-03    5.3801928E+06    2.8829110E-02    5.3770462E+06
    0.41   800.000   -8.565E+01    5.3637095E+06   -9.7169378E+03    9.8085627E-03    5.3911640E+06    3.1934408E-02    5.3902310E+06
    0.42   800.000   -8.646E+01    5.3743275E+06   -1.0254293E+04    1.2101635E-02    5.4002157E+06    3.5066350E-02    5.4013741E+06
    0.43   800.000   -8.728E+01    5.3831891E+06   -1.0733156E+04    1.4239830E-02    5.4073007E+06    3.8168125E-02    5.4103585E+06
    0.44   800.000   -8.810E+01    5.3901468E+06   -1.1129913E+04    1.6188694E-02    5.4123004E+06    4.1173026E-02    5.4170007E+06
    0.45   800.000   -8.893E+01    5.3949828E+06   -1.1420704E+04    1.7913687E-02    5.4150301E+06    4.4005403E-02    5.4210605E+06
    0.46   800.000   -8.976E+01    5.3974200E+06   -1.1583203E+04    1.9380960E-02    5.4152500E+06    4.6582927E-02    5.4222543E+06
    0.47   800.000   -9.060E+01    5.3971370E+06   -1.1598469E+04    2.0558887E-02    5.4126780E+06    4.8820131E-02    5.4202713E+06
    0.48   800.000   -9.144E+01    5.3937832E+06   -1.1452697E+04    2.1420152E-02    5.4070043E+06    5.0632952E-02    5.4147892E+06
    0.49   800.000   -9.229E+01    5.3869950E+06   -1.1138720E+04    2.1944081E-02    5.3979055E+06    5.1943897E-02    5.4054889E+06
    0.50   800.000   -9.315E+01    5.3764106E+06   -1.0657082E+04    2.2118858E-02    5.3850580E+06    5.2687269E-02    5.3920672E+06
    0.51   800.000   -9.401E+01    5.3616845E+06   -1.0016540E+04    2.1943235E-02    5.3681503E+06    5.2813945E-02    5.3742477E+06
    0.52   800.000   -9.488E+01    5.3425002E+06   -9.2338756E+03    2.1427441E-02    5.3468949E+06    5.2295215E-02    5.3517905E+06
    0.53   800.000   -9.575E+01    5.3185829E+06   -8.3329720E+03    2.0593055E-02    5.3210399E+06    5.1125330E-02    5.3245004E+06
    0.54   800.000   -9.662E+01    5.2897117E+06   -7.3431980E+03    1.9471751E-02    5.2903809E+06    4.9322584E-02    5.2922351E+06
    0.55   800.000   -9.750E+01    5.2557305E+06   -6.2972449E+03    1.8102976E-02    5.2547717E+06    4.6928858E-02    5.2549134E+06
    0.56   800.000   -9.838E+01    5.2165571E+06   -5.2286535E+03    1.6530738E-02    5.2141344E+06    4.4007748E-02    5.2125209E+06
    0.57   800.000   -9.927E+01    5.1721903E+06   -4.1693301E+03    1.4799848E-02    5.1684666E+06    4.0641437E-02    5.1651153E+06
    0.58   800.000   -1.001E+02    5.1227116E+06   -3.1473647E+03    1.2952058E-02    5.1178448E+06    3.6926562E-02    5.1128263E+06
    0.59   800.000   -1.010E+02    5.0682822E+06   -2.1854117E+03    1.1022578E-02    5.0624221E+06    3.2969375E-02    5.0558522E+06
    0.60   800.000   -1.019E+02    5.0091346E+06   -1.2998024E+03    9.0374827E-03    5.0024205E+06    2.8880494E-02    4.9944510E+06
    0.61   800.000   -1.028E+02    4.9455580E+06   -5.0043213E+02    7.0124267E-03    4.9381176E+06    2.4769562E-02    4.9289262E+06
    0.62   800.000   -1.037E+02    4.8778809E+06    2.0865951E+02    4.9529367E-03    4.8698292E+06    2.0740152E-02    4.8596100E+06
    0.63   800.000   -1.045E+02    4.8064519E+06    8.2819308E+02    2.8563489E-03    4.7978908E+06    1.6885205E-02    4.7868456E+06
    0.64   800.000   -1.054E+02    4.7316236E+06    1.3622719E+03    7.1521010E-04    4.7226413E+06    1.3283292E-02    4.7109711E+06
    0.65   800.000   -1.063E+02    4.6537398E+06    1.8169589E+03   -1.4782775E-03    4.6444109E+06    9.9958746E-03    4.6323095E+06
    0.66   800.000   -1.071E+02    4.5731310E+06    2.1990083E+03   -3.7273774E-03    4.5635161E+06    7.0657285E-03    4.5511638E+06
    0.67   800.000   -1.079E+02    4.4901158E+06    2.5148852E+03   -6.0262176E-03    4.4802622E+06    4.5165348E-03    4.4678217E+06
    0.68   800.000   -1.088E+02    4.4050103E+06    2.7701388E+03   -8.3561708E-03    4.3949527E+06    2.3536124E-03    4.3825645E+06
    0.69   800.000   -1.096E+02    4.3181409E+06    2.9691224E+03   -1.0683787E-02    4.3079032E+06    5.6565845E-04    4.2956823E+06
    0.70   800.000   -1.104E+02    4.2298595E+06    3.1150093E+03   -1.2960634E-02    4.2194573E+06   -8.7268249E-04    4.2074902E+06
    0.71   800.000   -1.112E+02    4.1405577E+06    3.2100195E+03   -1.5125102E-02    4.1300016E+06   -1.9976476E-03    4.1183436E+06
    0.72   800.000   -1.120E+02    4.0506775E+06    3.2557616E+03   -1.7105973E-02    4.0399774E+06   -2.8528366E-03    4.0286502E+06
    0.73   800.000   -1.127E+02    3.9607179E+06    3.2535995E+03   -1.8827292E-02    3.9498873E+06   -3.4856146E-03    3.9388779E+06
    0.74   800.000   -1.135E+02    3.8712358E+06    3.2049670E+03   -2.0213939E-02    3.8602960E+06   -3.9437065E-03    3.8495563E+06
    0.75   800.000   -1.142E+02    3.7828416E+06    3.1115797E+03   -2.1197246E-02    3.7718255E+06   -4.2722267E-03    3.7612735E+06
    0.76   800.000   -1.149E+02    3.6961911E+06    2.9755227E+03   -2.1720052E-02    3.6851451E+06   -4.5113402E-03    3.6746684E+06
    0.77   800.000   -1.156E+02    3.6119724E+06    2.7992203E+03   -2.1740714E-02    3.6009574E+06   -4.6946703E-03    3.5904178E+06
    0.78   800.000   -1.163E+02    3.5308911E+06    2.5853173E+03   -2.1235743E-02    3.5199807E+06   -4.8484739E-03    3.5092214E+06
    0.79   800.000   -1.170E+02    3.4536522E+06    2.3365186E+03   -2.0200942E-02    3.4429302E+06   -4.9915118E-03    3.4317841E+06
    0.80   800.000   -1.176E+02    3.3809419E+06    2.0554402E+03   -1.8651075E-02    3.3704971E+06   -5.1354667E-03    3.3587961E+06
    0.81   800.000   -1.182E+02    3.3134082E+06    1.7445184E+03   -1.6618271E-02    3.3033285E+06   -5.2857301E-03    3.2909136E+06
    0.82   800.000   -1.189E+02    3.2516417E+06    1.4060186E+03   -1.4149454E-02    3.2420074E+06   -5.4423835E-03    3.2287383E+06
    0.83   800.000   -1.195E+02    3.1961581E+06    1.0421641E+03   -1.1303159E-02    3.1870354E+06   -5.6012460E-03    3.1727983E+06
    0.84   800.000   -1.200E+02    3.1473813E+06    6.5538824E+02   -8.1461193E-03    3.1388160E+06   -5.7549191E-03    3.1235306E+06
    0.85   800.000   -1.206E+02    3.1056286E+06    2.4868957E+02   -4.7499403E-03    3.0976412E+06   -5.8938186E-03    3.0812652E+06
    0.86   800.000   -1.212E+02    3.0710986E+06   -1.7395203E+02   -1.1881422E-03    3.0636804E+06   -6.0072171E-03    3.0462106E+06
    0.87   800.000   -1.217E+02    3.0438601E+06   -6.0715748E+02    2.4662821E-03    3.0369714E+06   -6.0843314E-03    3.0184431E+06
    0.88   800.000   -1.222E+02    3.0238442E+06   -1.0437997E+03    6.1427328E-03    3.0174141E+06   -6.1154587E-03    2.9978976E+06
    0.89   800.000   -1.227E+02    3.0108392E+06   -1.4747947E+03    9.7743302E-03    3.0047671E+06   -6.0931270E-03    2.9843624E+06
    0.90   800.000   -1.233E+02    3.0044889E+06   -1.8890917E+03    1.3298811E-02    2.9986476E+06   -6.0131673E-03    2.9774777E+06
    0.91   800.000   -1.238E+02    3.0042957E+06   -2.2739041E+03    1.6659129E-02    2.9985366E+06   -5.8755781E-03    2.9767400E+06
    0.92   800.000   -1.243E+02    3.0096311E+06   -2.6151903E+03    1.9803903E-02    3.0037888E+06   -5.6850301E-03    2.9815121E+06
    0.93   800.000   -1.247E+02    3.0197515E+06   -2.8983704E+03    2.2687804E-02    3.0136510E+06   -5.4508817E-03    2.9910419E+06
    0.94   800.000   -1.252E+02    3.0338244E+06   -3.1092254E+03    2.5271967E-02    3.0272876E+06   -5.1866260E-03    3.0044883E+06
    0.95   800.000   -1.257E+02    3.0509599E+06   -3.2349014E+03    2.7524398E-02    3.0438125E+06   -4.9087721E-03    3.0209546E+06
    0.96   800.000   -1.262E+02    3.0702498E+06   -3.2649159E+03    2.9420374E-02    3.0623286E+06   -4.6352608E-03    3.0395285E+06
    0.97   800.000   -1.267E+02    3.0908091E+06   -3.1920506E+03    3.0942758E-02    3.0819691E+06   -4.3836026E-03    3.0593239E+06
    0.98   800.000   -1.272E+02    3.1118179E+06   -3.0130182E+03    3.2082165E-02    3.1019388E+06   -4.1689869E-03    3.0795238E+06
    0.99   800.000   -1.277E+02    3.1325592E+06   -2.7288159E+03    3.2836925E-02    3.1215515E+06   -4.0026308E-03    3.0994177E+06
    1.00   800.000   -1.281E+02    3.1524498E+06   -2.3447162E+03    3.3212830E-02    3.1402605E+06   -3.8906059E-03    3.1184327E+06
    1.01   800.000   -1.286E+02    3.1710606E+06   -1.8698989E+03    3.3222652E-02    3.1576770E+06   -3.8333042E-03    3.1361539E+06
    1.02   800.000   -1.291E+02    3.1881264E+06   -1.3167833E+03    3.2885478E-02    3.1735788E+06   -3.8256029E-03    3.1523330E+06
    1.03   800.000   -1.296E+02    3.2035426E+06   -7.0016148E+02    3.2225907E-02    3.1879051E+06   -3.8576735E-03    3.1668851E+06
    1.04   800.000   -1.301E+02    3.2173510E+06   -3.6258426E+01    3.1273177E-02    3.2007400E+06   -3.9162871E-03    3.1798740E+06
    1.05   800.000   -1.306E+02    3.2297159E+06    6.5815581E+02    3.0060259E-02    3.2122868E+06   -3.9864034E-03    3.1914876E+06
    1.06   800.000   -1.311E+02    3.2408923E+06    1.3665023E+03    2.8622986E-02    3.2228340E+06   -4.0528137E-03    3.2020053E+06
    1.07   800.000   -1.316E+02    3.2511889E+06    2.0729203E+03    2.6999227E-02    3.2327169E+06   -4.1016239E-03    3.2117609E+06
    1.08   800.000   -1.322E+02    3.2609292E+06    2.7625787E+03    2.5228137E-02    3.2422773E+06   -4.1214165E-03    3.2211028E+06
    1.09   800.000   -1.327E+02    3.2704131E+06    3.4218158E+03    2.3349462E-02    3.2518249E+06   -4.1039940E-03    3.2303546E+06
    1.10   800.000   -1.332E+02    3.2798823E+06    4.0381847E+03    2.1402909E-02    3.2616018E+06   -4.0446759E-03    3.2397799E+06
    1.11   800.000   -1.338E+02    3.2894920E+06    4.6004990E+03    1.9427533E-02    3.2717548E+06   -3.9421857E-03    3.2495523E+06
    1.12   800.000   -1.343E+02    3.2992910E+06    5.0989600E+03    1.7461145E-02    3.2823160E+06   -3.7982141E-03    3.2597341E+06
    1.13   800.000   -1.349E+02    3.3092117E+06    5.5254133E+03    1.5539712E-02    3.2931932E+06   -3.6167810E-03    3.2702651E+06
    1.14   800.000   -1.355E+02    3.3190701E+06    5.8737299E+03    1.3696760E-02    3.3041717E+06   -3.4035298E-03    3.2809615E+06
    1.15   800.000   -1.361E+02    3.3285771E+06    6.1402517E+03    1.1962776E-02    3.3149259E+06   -3.1650817E-03    3.2915252E+06
    1.16   800.000   -1.367E+02    3.3373570E+06    6.3241966E+03    1.0364632E-02    3.3250401E+06   -2.9085440E-03    3.3015633E+06
    1.17   800.000   -1.373E+02    3.3449733E+06    6.4279045E+03    8.9250621E-03    3.3340360E+06   -2.6412190E-03    3.3106140E+06
    1.18   800.000   -1.380E+02    3.3509587E+06    6.4568218E+03    7.6622127E-03    3.3414046E+06   -2.3705042E-03    3.3181775E+06
    1.19   800.000   -1.387E+02    3.3548453E+06    6.4191769E+03    6.5892949E-03    3.3466385E+06   -2.1039264E-03    3.3237490E+06
    1.20   800.000   -1.393E+02    3.3561935E+06    6.3253673E+03    5.7143808E-03    3.3492629E+06   -1.8492236E-03    3.3268497E+06
    1.21   800.000   -1.400E+02    3.3546169E+06    6.1871480E+03    5.0403707E-03    3.3488625E+06   -1.6143844E-03    3.3270543E+06
    1.22   800.000   -1.408E+02    3.3498012E+06    6.0167525E+03    4.5651645E-03    3.3451015E+06   -1.4075775E-03    3.3240124E+06
    1.23   800.000   -1.415E+02    3.3415169E+06    5.8260837E+03    4.2820518E-03    3.3377372E+06   -1.2369358E-03    3.3174629E+06
    1.24   800.000   -1.423E+02    3.3296250E+06    5.6260797E+03    4.1803136E-03    3.3266259E+06   -1.1101977E-03    3.3072408E+06
    1.25   800.000   -1.431E+02    3.3140770E+06    5.4263052E+03    4.2459957E-03    3.3117223E+06   -1.0342313E-03    3.2932776E+06
    1.26   800.000   -1.439E+02    3.2949104E+06    5.2347620E+03    4.4627800E-03    3.2930731E+06   -1.0144787E-03    3.2755961E+06
    1.27   800.000   -1.448E+02    3.2722398E+06    5.0578655E+03    4.8128594E-03    3.2708077E+06   -1.0543606E-03    3.2543020E+06
    1.28   800.000   -1.456E+02    3.2462482E+06    4.9005176E+03    5.2777177E-03    3.2451257E+06   -1.1546828E-03    3.2295726E+06
    1.29   800.000   -1.465E+02    3.2171757E+06    4.7662117E+03    5.8387371E-03    3.2162844E+06   -1.3130994E-03    3.2016462E+06
    1.30   800.000   -1.475E+02    3.1853101E+06    4.6571264E+03    6.4775995E-03    3.1845874E+06   -1.5237092E-03    3.1708110E+06
    1.31   800.000   -1.484E+02    3.1509782E+06    4.5741938E+03    7.1764975E-03    3.1503740E+06   -1.7768902E-03    3.1373955E+06
    1.32   800.000   -1.494E+02    3.1145381E+06    4.5171494E+03    7.9182237E-03    3.1140112E+06   -2.0594909E-03    3.1017615E+06
    1.33   800.000   -1.504E+02    3.0763740E+06    4.4845836E+03    8.6862307E-03    3.0758872E+06   -2.3554813E-03    3.0642967E+06
    1.34   800.000   -1.515E+02    3.0368915E+06    4.4740113E+03    9.4647586E-03    3.0364075E+06   -2.6471184E-03    3.0254109E+06
    1.35   800.000   -1.525E+02    2.9965146E+06    4.4819678E+03    1.0239099E-02    2.9959927E+06   -2.9165869E-03    2.9855320E+06
    1.36   800.000   -1.536E+02    2.9556834E+06    4.5041307E+03    1.0996015E-02    2.9550769E+06   -3.1479719E-03    2.9451038E+06
    1.37   800.000   -1.548E+02    2.9148523E+06    4.5354548E+03    1.1724295E-02    2.9141075E+06   -3.3293168E-03    2.9045836E+06
    1.38   800.000   -1.559E+02    2.8744875E+06    4.5703125E+03    1.2415363E-02    2.8735435E+06   -3.4544601E-03    2.8644398E+06
    1.39   800.000   -1.571E+02    2.8350629E+06    4.6026359E+03    1.3063841E-02    2.8338536E+06   -3.5243425E-03    2.8251478E+06
    1.40   800.000   -1.583E+02    2.7970537E+06    4.6260714E+03    1.3667972E-02    2.7955103E+06   -3.5475456E-03    2.7871844E+06
    1.41   800.000   -1.594E+02    2.7609278E+06    4.6341643E+03    1.4229790E-02    2.7589822E+06   -3.5399508E-03    2.7510188E+06
    1.42   800.000   -1.607E+02    2.7271337E+06    4.6205954E+03    1.4754975E-02    2.7247228E+06   -3.5235590E-03    2.7171019E+06
    1.43   800.000   -1.619E+02    2.6960868E+06    4.5794840E+03    1.5252353E-02    2.6931566E+06   -3.5246610E-03    2.6858527E+06
    1.44   800.000   -1.631E+02    2.6681549E+06    4.5057540E+03    1.5733044E-02    2.6646644E+06   -3.5716420E-03    2.6576441E+06
    1.45   800.000   -1.643E+02    2.6436437E+06    4.3955393E+03    1.6209328E-02    2.6395684E+06   -3.6927403E-03    2.6327896E+06
    1.46   800.000   -1.655E+02    2.6227856E+06    4.2465866E+03    1.6693320E-02    2.6181197E+06   -3.9140390E-03    2.6115314E+06
    1.47   800.000   -1.667E+02    2.6057316E+06    4.0585990E+03    1.7195595E-02    2.6004890E+06   -4.2578819E-03    2.5940325E+06
    1.48   800.000   -1.679E+02    2.5925478E+06    3.8334669E+03    1.7723934E-02    2.5867625E+06   -4.7417896E-03    2.5803729E+06
    1.49   800.000   -1.691E+02    2.5832182E+06    3.5753415E+03    1.8282329E-02    2.5769423E+06   -5.3778462E-03    2.5705510E+06
    1.50   800.000   -1.702E+02    2.5776507E+06    3.2905298E+03    1.8870378E-02    2.5709523E+06   -6.1724494E-03    2.5644894E+06
    1.51   800.000   -1.714E+02    2.5756893E+06    2.9872140E+03    1.9483123E-02    2.5686483E+06   -7.1262819E-03    2.5620454E+06
    1.52   800.000   -1.725E+02    2.5771274E+06    2.6750236E+03    2.0111338E-02    2.5698314E+06   -8.2343695E-03    2.5630241E+06
    1.53   800.000   -1.736E+02    2.5817247E+06    2.3645038E+03    2.0742204E-02    2.5742634E+06   -9.4861302E-03    2.5671936E+06
    1.54   800.000   -1.746E+02    2.5892221E+06    2.0665336E+03    2.1360261E-02    2.5816823E+06   -1.0865378E-02    2.5743006E+06
    1.55   800.000   -1.757E+02    2.5993556E+06    1.7917370E+03    2.1948491E-02    2.5918164E+06   -1.2350314E-02    2.5840843E+06
    1.56   800.000   -1.767E+02    2.6118682E+06    1.5499232E+03    2.2489417E-02    2.6043960E+06   -1.3913585E-02    2.5962880E+06
    1.57   800.000   -1.777E+02    2.6265161E+06    1.3495666E+03    2.2966087E-02    2.6191624E+06   -1.5522540E-02    2.6106675E+06
    1.58   800.000   -1.786E+02    2.6430736E+06    1.1973281E+03    2.3362897E-02    2.6358726E+06   -1.7139821E-02    2.6269958E+06
    1.59   800.000   -1.796E+02    2.6613331E+06    1.0976100E+03    2.3666211E-02    2.6543022E+06   -1.8724381E-02    2.6450650E+06
    1.60   800.000   -1.805E+02    2.6811057E+06    1.0521454E+03    2.3864805E-02    2.6742464E+06   -2.0232998E-02    2.6646862E+06
    1.61   800.000   -1.814E+02    2.7022198E+06    1.0596396E+03    2.3950157E-02    2.6955203E+06   -2.1622240E-02    2.6856894E+06
    1.62   800.000   -1.823E+02    2.7245220E+06    1.1155083E+03    2.3916625E-02    2.7179604E+06   -2.2850781E-02    2.7079237E+06
    1.63   800.000   -1.831E+02    2.7478799E+06    1.2117727E+03    2.3761523E-02    2.7414268E+06   -2.3881862E-02    2.7312591E+06
    1.64   800.000   -1.840E+02    2.7721859E+06    1.3371819E+03    2.3485084E-02    2.7658071E+06   -2.4685641E-02    2.7555900E+06
    1.65   800.000   -1.848E+02    2.7973622E+06    1.4776159E+03    2.3090313E-02    2.7910204E+06   -2.5241179E-02    2.7808396E+06
    1.66   800.000   -1.856E+02    2.8233654E+06    1.6167900E+03    2.2582689E-02    2.8170206E+06   -2.5537824E-02    2.8069633E+06
    1.67   800.000   -1.864E+02    2.8501886E+06    1.7372309E+03    2.1969752E-02    2.8437977E+06   -2.5575825E-02    2.8339509E+06
    1.68   800.000   -1.872E+02    2.8778604E+06    1.8214454E+03    2.1260577E-02    2.8713759E+06   -2.5366132E-02    2.8618252E+06
    1.69   800.000   -1.880E+02    2.9064396E+06    1.8531594E+03    2.0465211E-02    2.8998081E+06   -2.4929419E-02    2.8906376E+06
    1.70   800.000   -1.888E+02    2.9360062E+06    1.8184878E+03    1.9594147E-02    2.9291672E+06   -2.4294501E-02    2.9204592E+06
    1.71   800.000   -1.895E+02    2.9666496E+06    1.7068983E+03    1.8657902E-02    2.9595349E+06   -2.3496316E-02    2.9513700E+06
    1.72   800.000   -1.903E+02    2.9984552E+06    1.5118641E+03    1.7666746E-02    2.9909890E+06   -2.2573726E-02    2.9834456E+06
    1.73   800.000   -1.910E+02    3.0314918E+06    1.2311486E+03    1.6630631E-02    3.0235918E+06   -2.1567296E-02    3.0167447E+06
    1.74   800.000   -1.918E+02    3.0658005E+06    8.6671365E+02    1.5559293E-02    3.0573805E+06   -2.0517216E-02    3.0512990E+06
    1.75   800.000   -1.925E+02    3.1013884E+06    4.2429828E+02    1.4462508E-02    3.0923615E+06   -1.9461457E-02    3.0871062E+06
    1.76   800.000   -1.932E+02    3.1382265E+06   -8.7259172E+01    1.3350443E-02    3.1285086E+06   -1.8434211E-02    3.1241275E+06
    1.77   800.000   -1.940E+02    3.1762536E+06   -6.5686218E+02    1.2234030E-02    3.1657668E+06   -1.7464655E-02    3.1622915E+06
    1.78   800.000   -1.947E+02    3.2153842E+06   -1.2720732E+03    1.1125287E-02    3.2040604E+06   -1.6576083E-02    3.2015023E+06
    1.79   800.000   -1.954E+02    3.2555221E+06   -1.9200318E+03    1.0037491E-02    3.2433050E+06   -1.5785431E-02    3.2416531E+06
    1.80   800.000   -1.961E+02    3.2965752E+06   -2.5883141E+03    8.9851222E-03    3.2834220E+06   -1.5103243E-02    3.2826416E+06
    1.81   800.000   -1.969E+02    3.3384715E+06   -3.2656833E+03    7.9834857E-03    3.3243536E+06   -1.4534106E-02    3.3243881E+06
    1.82   800.000   -1.976E+02    3.3811741E+06   -3.9426821E+03    7.0479675E-03    3.3660771E+06   -1.4077525E-02    3.3668509E+06
    1.83   800.000   -1.983E+02    3.4246920E+06   -4.6120174E+03    6.1928981E-03    3.4086150E+06   -1.3729188E-02    3.4100393E+06
    1.84   800.000   -1.991E+02    3.4690854E+06   -5.2686905E+03    5.4300782E-03    3.4520415E+06   -1.3482502E-02    3.4540213E+06
    1.85   800.000   -1.998E+02    3.5144662E+06   -5.9098465E+03    4.7670928E-03    3.4964830E+06   -1.3330221E-02    3.4989243E+06
    1.86   800.000   -2.005E+02    3.5609915E+06   -6.5343508E+03    4.2056177E-03    3.5421126E+06   -1.3265986E-02    3.5449300E+06
    1.87   800.000   -2.013E+02    3.6088528E+06   -7.1421470E+03    3.7399836E-03    3.5891405E+06   -1.3285556E-02    3.5922625E+06
    1.88   800.000   -2.020E+02    3.6582619E+06   -7.7334931E+03    3.3562837E-03    3.6378007E+06   -1.3387578E-02    3.6411735E+06
    1.89   800.000   -2.027E+02    3.7094357E+06   -8.3082037E+03    3.0322777E-03    3.6883357E+06   -1.3573750E-02    3.6919245E+06
    1.90   800.000   -2.035E+02    3.7625828E+06   -8.8650207E+03    2.7382547E-03    3.7409832E+06   -1.3848364E-02    3.7447698E+06
    1.91   800.000   -2.042E+02    3.8178929E+06   -9.4012156E+03    2.4388738E-03    3.7959642E+06   -1.4217252E-02    3.7999426E+06
    1.92   800.000   -2.050E+02    3.8755310E+06   -9.9124713E+03    2.0958358E-03    3.8534755E+06   -1.4686306E-02    3.8576455E+06
    1.93   800.000   -2.058E+02    3.9356372E+06   -1.0393045E+04    1.6710769E-03    3.9136876E+06   -1.5259747E-02    3.9180472E+06
    1.94   800.000   -2.065E+02    3.9983325E+06   -1.0836161E+04    1.1300591E-03    3.9767477E+06   -1.5938435E-02    3.9812849E+06
    1.95   800.000   -2.073E+02    4.0637288E+06   -1.1234553E+04    4.4469428E-04    4.0427879E+06   -1.6718443E-02    4.0474741E+06
    1.96   800.000   -2.080E+02    4.1319442E+06   -1.1581082E+04   -4.0451195E-04    4.1119380E+06   -1.7590109E-02    4.1167222E+06
    1.97   800.000   -2.088E+02    4.2031194E+06   -1.1869338E+04   -1.4273768E-03    4.1843409E+06   -1.8537724E-02    4.1891467E+06
    1.98   800.000   -2.096E+02    4.2774342E+06   -1.2094191E+04   -2.6241065E-03    4.2601692E+06   -1.9539864E-02    4.2648944E+06
    1.99   800.000   -2.104E+02    4.3551218E+06   -1.2252254E+04   -3.9863978E-03    4.3396393E+06   -2.0570336E-02    4.3441582E+06
    2.00   800.000   -2.111E+02    4.4364769E+06   -1.2342249E+04   -5.4992853E-03    4.4230220E+06   -2.1599586E-02    4.4271900E+06
    2.01   800.000   -2.119E+02    4.5218559E+06   -1.2365276E+04   -7.1433376E-03    4.5106447E+06   -2.2596367E-02    4.5143049E+06
    2.02   800.000   -2.127E+02    4.6116670E+06   -1.2324974E+04   -8.8967832E-03    4.6028844E+06   -2.3529453E-02    4.6058757E+06
    2.03   800.000   -2.135E+02    4.7063498E+06   -1.2227551E+04   -1.0737213E-02    4.7001504E+06   -2.4369174E-02    4.7023151E+06
    2.04   800.000   -2.143E+02    4.8063444E+06   -1.2081647E+04   -1.2642633E-02    4.8028554E+06   -2.5088607E-02    4.8040474E+06
    2.05   800.000   -2.151E+02    4.9120522E+06   -1.1897969E+04   -1.4591814E-02    4.9113781E+06   -2.5664317E-02    4.9114698E+06
    2.06   800.000   -2.159E+02    5.0237916E+06   -1.1688681E+04   -1.6564045E-02    5.0260195E+06   -2.6076635E-02    5.0249075E+06
    2.07   800.000   -2.167E+02    5.1417532E+06   -1.1466499E+04   -1.8538527E-02    5.1469575E+06   -2.6309539E-02    5.1445671E+06
    2.08   800.000   -2.174E+02    5.2659586E+06   -1.1243541E+04   -2.0493724E-02    5.2742044E+06   -2.6350255E-02    5.2704926E+06
    2.09   800.000   -2.182E+02    5.3962287E+06   -1.1030021E+04   -2.2406971E-02    5.4075727E+06   -2.6188765E-02    5.4025305E+06
    2.10   800.000   -2.190E+02    5.5321647E+06   -1.0832912E+04   -2.4254595E-02    5.5466542E+06   -2.5817359E-02    5.5403077E+06
    2.11   800.000   -2.198E+02    5.6731464E+06   -1.0654803E+04   -2.6012670E-02    5.6908152E+06   -2.5230370E-02    5.6832258E+06
    2.12   800.000   -2.206E+02    5.8183483E+06   -1.0493134E+04   -2.7658388E-02    5.8392108E+06   -2.4424127E-02    5.8304742E+06
    2.13   800.000   -2.214E+02    5.9667739E+06   -1.0340004E+04   -2.9171869E-02    5.9908179E+06   -2.3397124E-02    5.9810620E+06
    2.14   800.000   -2.222E+02    6.1173058E+06   -1.0182653E+04   -3.0538153E-02    6.1444840E+06   -2.2150319E-02    6.1338655E+06
    2.15   800.000   -2.230E+02    6.2687674E+06   -1.0004638E+04   -3.1748998E-02    6.2989892E+06   -2.0687465E-02    6.2876890E+06
    2.16   800.000   -2.237E+02    6.4199900E+06   -9.7875850E+03   -3.2804163E-02    6.4531150E+06   -1.9015375E-02    6.4413318E+06
    2.17   800.000   -2.245E+02    6.5698811E+06   -9.5133234E+03   -3.3711896E-02    6.6057138E+06   -1.7144053E-02    6.5936578E+06
    2.18   800.000   -2.253E+02    6.7174865E+06   -9.1661194E+03   -3.4488471E-02    6.7557739E+06   -1.5086690E-02    6.7436594E+06
    2.19   800.000   -2.261E+02    6.8620424E+06   -8.7347230E+03   -3.5156789E-02    6.9024740E+06   -1.2859557E-02    6.8905127E+06
    2.20   800.000   -2.268E+02    7.0030127E+06   -8.2139586E+03   -3.5744182E-02    7.0452234E+06   -1.0481875E-02    7.0336183E+06
    2.21   800.000   -2.276E+02    7.1401094E+06   -7.6056569E+03   -3.6279722E-02    7.1836845E+06   -7.9757256E-03    7.1726254E+06
    2.22   800.000   -2.284E+02    7.2732945E+06   -6.9188164E+03   -3.6791362E-02    7.3177759E+06   -5.3660548E-03    7.3074366E+06
    2.23   800.000   -2.291E+02    7.4027617E+06   -6.1689775E+03   -3.7303274E-02    7.4476558E+06   -2.6807521E-03    7.4381924E+06
    2.24   800.000   -2.299E+02    7.5288999E+06   -5.3768899E+03   -3.7833685E-02    7.5736850E+06    4.9250531E-05    7.5652361E+06
    2.25   800.000   -2.306E+02    7.6522394E+06   -4.5666328E+03   -3.8393411E-02    7.6963735E+06    2.7899716E-03    7.6890611E+06
    2.26   800.000   -2.313E+02    7.7733847E+06   -3.7634035E+03   -3.8985197E-02    7.8163134E+06    5.5045829E-03    7.8102446E+06
    2.27   800.000   -2.321E+02    7.8929388E+06   -2.9912242E+03   -3.9603838E-02    7.9341037E+06    8.1539192E-03    7.9293711E+06
    2.28   800.000   -2.328E+02    8.0114261E+06   -2.2708108E+03   -4.0236984E-02    8.0502740E+06    1.0697342E-02    8.0469564E+06
    2.29   800.000   -2.335E+02    8.1292195E+06   -1.6178154E+03   -4.0866478E-02    8.1652134E+06    1.3093939E-02    8.1633745E+06
    2.30   800.000   -2.342E+02    8.2464806E+06   -1.0415964E+03   -4.1470027E-02    8.2791123E+06    1.5303984E-02    8.2787984E+06
    2.31   800.000   -2.349E+02    8.3631172E+06   -5.4459270E+02   -4.2023037E-02    8.3919217E+06    1.7290541E-02    8.3931582E+06
    2.32   800.000   -2.356E+02    8.4787636E+06   -1.2230543E+02   -4.2500446E-02    8.5033340E+06    1.9021094E-02    8.5061209E+06
    2.33   800.000   -2.364E+02    8.5927845E+06    2.3617871E+02   -4.2878415E-02    8.6127862E+06    2.0469074E-02    8.6170944E+06
    2.34   800.000   -2.371E+02    8.7043027E+06    5.4723496E+02   -4.3135786E-02    8.7194857E+06    2.1615201E-02    8.7252529E+06
    2.35   800.000   -2.378E+02    8.8122476E+06    8.3145825E+02   -4.3255225E-02    8.8224542E+06    2.2448559E-02    8.8295840E+06
    2.36   800.000   -2.385E+02    8.9154196E+06    1.1122744E+03   -4.3223992E-02    8.9205874E+06    2.2967332E-02    8.9289495E+06
    2.37   800.000   -2.392E+02    9.0125660E+06    1.4145314E+03   -4.3034297E-02    9.0127244E+06    2.3179166E-02    9.0221583E+06
    2.38   800.000   -2.399E+02    9.1024615E+06    1.7631644E+03   -4.2683218E-02    9.0977224E+06    2.3101097E-02    9.1080433E+06
    2.39   800.000   -2.406E+02    9.1839882E+06    2.1819875E+03   -4.2172164E-02    9.1745320E+06    2.2759032E-02    9.1855393E+06
    2.40   800.000   -2.413E+02    9.2562115E+06    2.6926208E+03   -4.1505920E-02    9.2422690E+06    2.2186776E-02    9.2537561E+06
    2.41   800.000   -2.420E+02    9.3184455E+06    3.3135323E+03   -4.0691345E-02    9.3002795E+06    2.1424669E-02    9.3120434E+06
    2.42   800.000   -2.427E+02    9.3703070E+06    4.0591660E+03   -3.9735841E-02    9.3481947E+06    2.0517861E-02    9.3600454E+06
    2.43   800.000   -2.434E+02    9.4117548E+06    4.9391490E+03   -3.8645789E-02    9.3859730E+06    1.9514344E-02    9.3977407E+06
    2.44   800.000   -2.441E+02    9.4431103E+06    5.9576119E+03   -3.7425146E-02    9.4139259E+06    1.8462807E-02    9.4254659E+06
    2.45   800.000   -2.448E+02    9.4650596E+06    7.1127144E+03   -3.6074454E-02    9.4327250E+06    1.7410416E-02    9.4439192E+06
    2.46   800.000   -2.455E+02    9.4786325E+06    8.3964980E+03   -3.4590472E-02    9.4433870E+06    1.6400580E-02    9.4541430E+06
    2.47   800.000   -2.462E+02    9.4851603E+06    9.7951985E+03   -3.2966577E-02    9.4472353E+06    1.5470821E-02    9.4574828E+06
    2.48   800.000   -2.468E+02    9.4862112E+06    1.1290096E+04   -3.1194012E-02    9.4458390E+06    1.4650811E-02    9.4555239E+06
    2.49   800.000   -2.475E+02    9.4835084E+06    1.2858896E+04   -2.9263927E-02    9.4409316E+06    1.3960715E-02    9.4500096E+06
    2.50   800.000   -2.482E+02    9.4788356E+06    1.4477525E+04   -2.7170049E-02    9.4343158E+06    1.3409939E-02    9.4427458E+06
    2.51   800.000   -2.489E+02    9.4739390E+06    1.6122104E+04   -2.4911680E-02    9.4277628E+06    1.2996406E-02    9.4355004E+06
    2.52   800.000   -2.496E+02    9.4704336E+06    1.7770822E+04   -2.2496677E-02    9.4229149E+06    1.2706461E-02    9.4299068E+06
    2.53   800.000   -2.502E+02    9.4697222E+06    1.9405396E+04   -1.9943977E-02    9.4212001E+06    1.2515456E-02    9.4273801E+06
    2.54   800.000   -2.509E+02    9.4729336E+06    2.1011896E+04   -1.7285300E-02    9.4237668E+06    1.2389017E-02    9.4290521E+06
    2.55   800.000   -2.515E+02    9.4808826E+06    2.2580789E+04   -1.4565682E-02    9.4314400E+06    1.2284972E-02    9.4357291E+06
    2.56   800.000   -2.522E+02    9.4940529E+06    2.4106209E+04   -1.1842659E-02    9.4447026E+06    1.2155808E-02    9.4478736E+06
    2.57   800.000   -2.528E+02    9.5125986E+06    2.5584596E+04   -9.1840416E-03    9.4636969E+06    1.1951550E-02    9.4656061E+06
    2.58   800.000   -2.535E+02    9.5363615E+06    2.7012916E+04   -6.6644191E-03    9.4882425E+06    1.1622880E-02    9.4887242E+06
    2.59   800.000   -2.541E+02    9.5648981E+06    2.8386765E+04   -4.3606687E-03    9.5178661E+06    1.1124329E-02    9.5167321E+06
    2.60   800.000   -2.547E+02    9.5975115E+06    2.9698671E+04   -2.3468980E-03    9.5518357E+06    1.0417365E-02    9.5488766E+06
    2.61   800.000   -2.554E+02    9.6332845E+06    3.0936857E+04   -6.8930828E-04    9.5891971E+06    9.4731829E-03    9.5841830E+06
    2.62   800.000   -2.560E+02    9.6711111E+06    3.2084707E+04    5.5850987E-04    9.6288081E+06    8.2750344E-03    9.6214902E+06
    2.63   800.000   -2.566E+02    9.7097262E+06    3.3121061E+04    1.3593893E-03    9.6693696E+06    6.8198963E-03    9.6594818E+06
    2.64   800.000   -2.572E+02    9.7477337E+06    3.4021356E+04    1.6951626E-03    9.7094544E+06    5.1193252E-03    9.6967147E+06
    2.65   800.000   -2.578E+02    9.7836348E+06    3.4759528E+04    1.5678062E-03    9.7475354E+06    3.1993584E-03    9.7316467E+06
    2.66   800.000   -2.583E+02    9.8158584E+06    3.5310450E+04    9.9913004E-04    9.7820156E+06    1.0993869E-03    9.7626659E+06
    2.67   800.000   -2.589E+02    9.8427975E+06    3.5652613E+04    2.9142465E-05    9.8112620E+06   -1.1299877E-03    9.7881241E+06
    2.68   800.000   -2.595E+02    9.8628509E+06    3.5770705E+04   -1.2866503E-03    9.8336466E+06   -3.4299972E-03    9.8063777E+06
    2.69   800.000   -2.600E+02    9.8744725E+06    3.5657755E+04   -2.8806822E-03    9.8475949E+06   -5.7374296E-03    9.8158359E+06
    2.70   800.000   -2.606E+02    9.8762276E+06    3.5316568E+04   -4.6771529E-03    9.8516410E+06   -7.9887193E-03    9.8150165E+06
    2.71   800.000   -2.611E+02    9.8668532E+06    3.4760305E+04   -6.5959232E-03    9.8444880E+06   -1.0124040E-02    9.8026065E+06
    2.72   800.000   -2.616E+02    9.8453193E+06    3.4012158E+04   -8.5562271E-03    9.8250701E+06   -1.2091023E-02    9.7775258E+06
    2.73   800.000   -2.622E+02    9.8108876E+06    3.3104206E+04   -1.0480035E-02    9.7926118E+06   -1.3847777E-02    9.7389871E+06
    2.74   800.000   -2.627E+02    9.7631621E+06    3.2075607E+04   -1.2294987E-02    9.7466794E+06   -1.5364940E-02    9.6865490E+06
    2.75   800.000   -2.632E+02    9.7021270E+06    3.0970347E+04   -1.3936881E-02    9.6872203E+06   -1.6626640E-02    9.6201567E+06
    2.76   800.000   -2.637E+02    9.6281661E+06    2.9834725E+04   -1.5351742E-02    9.6145833E+06   -1.7630305E-02    9.5401642E+06
    2.77   800.000   -2.641E+02    9.5420613E+06    2.8714772E+04   -1.6497503E-02    9.5295189E+06   -1.8385426E-02    9.4473358E+06
    2.78   800.000   -2.646E+02    9.4449668E+06    2.7653728E+04   -1.7345302E-02    9.4331542E+06   -1.8911429E-02    9.3428229E+06
    2.79   800.000   -2.651E+02    9.3383582E+06    2.6689691E+04   -1.7880361E-02    9.3269440E+06   -1.9234916E-02    9.2281164E+06
    2.80   800.000   -2.655E+02    9.2239600E+06    2.5853546E+04   -1.8102368E-02    9.2125994E+06   -1.9386569E-02    9.1049763E+06
    2.81   800.000   -2.660E+02    9.1036557E+06    2.5167250E+04   -1.8025266E-02    9.0919992E+06   -1.9398047E-02    8.9753432E+06
    2.82   800.000   -2.664E+02    8.9793879E+06    2.4642593E+04   -1.7676341E-02    8.9670905E+06   -1.9299169E-02    8.8412398E+06
    2.83   800.000   -2.669E+02    8.8530568E+06    2.4280519E+04   -1.7094547E-02    8.8397883E+06   -1.9115658E-02    8.7046691E+06
    2.84   800.000   -2.673E+02    8.7264282E+06    2.4071082E+04   -1.6328089E-02    8.7118820E+06   -1.8867598E-02    8.5675203E+06
    2.85   800.000   -2.677E+02    8.6010561E+06    2.3994097E+04   -1.5431347E-02    8.5849583E+06   -1.8568689E-02    8.4314901E+06
    2.86   800.000   -2.681E+02    8.4782293E+06    2.4020480E+04   -1.4461361E-02    8.4603462E+06   -1.8226253E-02    8.2980262E+06
    2.87   800.000   -2.685E+02    8.3589444E+06    2.4114276E+04   -1.3474143E-02    8.3390887E+06   -1.7841863E-02    8.1682960E+06
    2.88   800.000   -2.689E+02    8.2439060E+06    2.4235289E+04   -1.2521161E-02    8.2219413E+06   -1.7412427E-02    8.0431821E+06
    2.89   800.000   -2.693E+02    8.1335526E+06    2.4342245E+04   -1.1646340E-02    8.1093969E+06   -1.6931504E-02    7.9233036E+06
    2.90   800.000   -2.697E+02    8.0281040E+06    2.4396279E+04   -1.0883855E-02    8.0017315E+06   -1.6390686E-02    7.8090564E+06
    2.91   800.000   -2.701E+02    7.9276242E+06    2.4364520E+04   -1.0256938E-02    7.8990655E+06   -1.5780879E-02    7.7006698E+06
    2.92   800.000   -2.705E+02    7.8320923E+06    2.4223408E+04   -9.7777245E-03    7.8014336E+06   -1.5093398E-02    7.5982700E+06
    2.93   800.000   -2.709E+02    7.7414741E+06    2.3961315E+04   -9.4481064E-03    7.7088539E+06   -1.4320815E-02    7.5019453E+06
    2.94   800.000   -2.713E+02    7.6557868E+06    2.3580039E+04   -9.2613397E-03    7.6213909E+06   -1.3457559E-02    7.4118052E+06
    2.95   800.000   -2.717E+02    7.5751497E+06    2.3094785E+04   -9.2041343E-03    7.5392037E+06   -1.2500297E-02    7.3280268E+06
    2.96   800.000   -2.721E+02    7.4998158E+06    2.2532467E+04   -9.2588716E-03    7.4625746E+06   -1.1448134E-02    7.2508854E+06
    2.97   800.000   -2.724E+02    7.4301797E+06    2.1928392E+04   -9.4056337E-03    7.3919157E+06   -1.0302697E-02    7.1807630E+06
    2.98   800.000   -2.728E+02    7.3667627E+06    2.1321689E+04   -9.6238041E-03    7.3277515E+06   -9.0681556E-03    7.1181362E+06
    2.99   800.000   -2.732E+02    7.3101747E+06    2.0750113E+04   -9.8931155E-03    7.2706808E+06   -7.7512178E-03    7.0635422E+06
    3.00   800.000   -2.736E+02    7.2610575E+06    2.0244955E+04   -1.0194152E-02    7.2213211E+06   -6.3611208E-03    7.0175285E+06
    3.01   800.000   -2.740E+02    7.2200177E+06    1.9826813E+04   -1.0508423E-02    7.1802425E+06   -4.9096123E-03    6.9805900E+06
    3.02   800.000   -2.743E+02    7.1875550E+06    1.9502832E+04   -1.0818185E-02    7.1479004E+06   -3.4108891E-03    6.9531041E+06
    3.03   800.000   -2.747E+02    7.1639982E+06    1.9265743E+04   -1.1106230E-02    7.1245743E+06   -1.8814516E-03    6.9352703E+06
    3.04   800.000   -2.751E+02    7.1494566E+06    1.9094756E+04   -1.1355770E-02    7.1103239E+06   -3.3982639E-04    6.9270667E+06
    3.05   800.000   -2.755E+02    7.1437967E+06    1.8958087E+04   -1.1550542E-02    7.1049688E+06    1.1938666E-03    6.9282293E+06
    3.06   800.000   -2.758E+02    7.1466490E+06    1.8816660E+04   -1.1675110E-02    7.1080981E+06    2.6985035E-03    6.9382620E+06
    3.07   800.000   -2.762E+02    7.1574479E+06    1.8628460E+04   -1.1715336E-02    7.1191124E+06    4.1526590E-03    6.9564786E+06
    3.08   800.000   -2.766E+02    7.1755022E+06    1.8352951E+04   -1.1658916E-02    7.1372938E+06    5.5353475E-03    6.9820740E+06
    3.09   800.000   -2.770E+02    7.2000883E+06    1.7955097E+04   -1.1495898E-02    7.1618986E+06    6.8267030E-03    7.0142187E+06
    3.10   800.000   -2.773E+02    7.2305545E+06    1.7408619E+04   -1.1219116E-02    7.1922608E+06    8.0085033E-03    7.0521638E+06
    3.11   800.000   -2.777E+02    7.2664224E+06    1.6698288E+04   -1.0824508E-02    7.2278918E+06    9.0644648E-03    7.0953427E+06
    3.12   800.000   -2.781E+02    7.3074705E+06    1.5821163E+04   -1.0311319E-02    7.2685631E+06    9.9802849E-03    7.1434559E+06
    3.13   800.000   -2.785E+02    7.3537852E+06    1.4786789E+04   -9.6821911E-03    7.3143575E+06    1.0743463E-02    7.1965243E+06
    3.14   800.000   -2.788E+02    7.4057728E+06    1.3616384E+04   -8.9431509E-03    7.3656816E+06    1.1342984E-02    7.2549023E+06
    3.15   800.000   -2.792E+02    7.4641259E+06    1.2341113E+04   -8.1034881E-03    7.4232333E+06    1.1768970E-02    7.3192474E+06
    3.16   800.000   -2.796E+02    7.5297473E+06    1.0999527E+04   -7.1754902E-03    7.4879278E+06    1.2012417E-02    7.3904463E+06
    3.17   800.000   -2.800E+02    7.6036394E+06    9.6343370E+03   -6.1740037E-03    7.5607881E+06    1.2065107E-02    7.4695063E+06
    3.18   800.000   -2.803E+02    7.6867687E+06    8.2887477E+03   -5.1157873E-03    7.6428100E+06    1.1919723E-02    7.5574203E+06
    3.19   800.000   -2.807E+02    7.7799205E+06    7.0026699E+03   -4.0186403E-03    7.7348169E+06    1.1570174E-02    7.6550209E+06
    3.20   800.000   -2.811E+02    7.8835560E+06    5.8092048E+03   -2.9003184E-03    7.8373155E+06    1.1012074E-02    7.7628350E+06
    3.21   800.000   -2.815E+02    7.9976852E+06    4.7318039E+03   -1.7772856E-03    7.9503662E+06    1.0243285E-02    7.8809524E+06
    3.22   800.000   -2.819E+02    8.1217640E+06    3.7824485E+03   -6.6338729E-04    8.0734784E+06    9.2644631E-03    8.0089179E+06
    3.23   800.000   -2.823E+02    8.2546249E+06    2.9610673E+03    4.3142590E-04    8.2055371E+06    8.0795210E-03    8.1456552E+06
    3.24   800.000   -2.827E+02    8.3944439E+06    2.2562379E+03    1.5021650E-03    8.3447678E+06    6.6959650E-03    8.2894281E+06
    3.25   800.000   -2.831E+02    8.5387461E+06    1.6470432E+03    2.5494833E-03    8.4887394E+06    5.1250848E-03    8.4378405E+06
    3.26   800.000   -2.835E+02    8.6844511E+06    1.1058102E+03    3.5798075E-03    8.6344080E+06    3.3819917E-03    8.5878779E+06
    3.27   800.000   -2.839E+02    8.8279570E+06    6.0137004E+02    4.6048053E-03    8.7781991E+06    1.4855171E-03    8.7359890E+06
    3.28   800.000   -2.844E+02    8.9652614E+06    1.0245110E+02    5.6401644E-03    8.9161276E+06   -5.4201278E-04    8.8782056E+06
    3.29   800.000   -2.848E+02    9.0921156E+06   -4.1915818E+02    6.7037706E-03    9.0439514E+06   -2.6751016E-03    9.0102981E+06
    3.30   800.000   -2.852E+02    9.2042087E+06   -9.8598070E+02    7.8134938E-03    9.1573542E+06   -4.8854821E-03    9.1279601E+06
    3.31   800.000   -2.857E+02    9.2973742E+06   -1.6129815E+03    8.9848821E-03    9.2521518E+06   -7.1425573E-03    9.2270164E+06
    3.32   800.000   -2.861E+02    9.3678085E+06   -2.3066003E+03    1.0229110E-02    9.3245101E+06   -9.4138497E-03    9.3036421E+06
    3.33   800.000   -2.866E+02    9.4122894E+06   -3.0647435E+03    1.1551496E-02    9.3711642E+06   -1.1665430E-02    9.3545804E+06
    3.34   800.000   -2.871E+02    9.4283775E+06   -3.8777127E+03    1.2950833E-02    9.3896202E+06   -1.3862308E-02    9.3773431E+06
    3.35   800.000   -2.875E+02    9.4145835E+06   -4.7299566E+03    1.4419602E-02    9.3783252E+06   -1.5968782E-02    9.3703766E+06
    3.36   800.000   -2.880E+02    9.3704840E+06   -5.6024481E+03    1.5945042E-02    9.3367854E+06   -1.7948793E-02    9.3331772E+06
    3.37   800.000   -2.884E+02    9.2967719E+06   -6.4753996E+03    1.7510839E-02    9.2656201E+06   -1.9766314E-02    9.2663424E+06
    3.38   800.000   -2.889E+02    9.1952329E+06   -7.3309650E+03    1.9099171E-02    9.1665424E+06   -2.1385846E-02    9.1715502E+06
    3.39   800.000   -2.894E+02    9.0686489E+06   -8.1555497E+03    2.0692747E-02    9.0422661E+06   -2.2773090E-02    9.0514672E+06
    3.40   800.000   -2.899E+02    8.9206340E+06   -8.9413846E+03    2.2276554E-02    8.8963450E+06   -2.3895812E-02    8.9095912E+06
    3.41   800.000   -2.903E+02    8.7554210E+06   -9.6871205E+03    2.3839068E-02    8.7329624E+06   -2.4724934E-02    8.7500449E+06
    3.42   800.000   -2.908E+02    8.5776194E+06   -1.0397354E+04    2.5372822E-02    8.5566894E+06   -2.5235786E-02    8.5773405E+06
    3.43   800.000   -2.913E+02    8.3919677E+06   -1.1081181E+04    2.6874327E-02    8.3722386E+06   -2.5409458E-02    8.3961374E+06
    3.44   800.000   -2.918E+02    8.2031045E+06   -1.1750053E+04    2.8343450E-02    8.1842339E+06   -2.5234123E-02    8.2110171E+06
    3.45   800.000   -2.922E+02    8.0153757E+06   -1.2415317E+04    2.9782410E-02    7.9970159E+06   -2.4706194E-02    8.0262908E+06
    3.46   800.000   -2.927E+02    7.8326900E+06   -1.3085881E+04    3.1194579E-02    7.8144961E+06   -2.3831155E-02    7.8458536E+06
    3.47   800.000   -2.932E+02    7.6584266E+06   -1.3766401E+04    3.2583272E-02    7.6400624E+06   -2.2623931E-02    7.6730899E+06
    3.48   800.000   -2.937E+02    7.4953930E+06   -1.4456251E+04    3.3950652E-02    7.4765360E+06   -2.1108697E-02    7.5108269E+06
    3.49   800.000   -2.942E+02    7.3458245E+06   -1.5149392E+04    3.5296815E-02    7.3261695E+06   -1.9318070E-02    7.3613301E+06
    3.50   800.000   -2.947E+02    7.2114146E+06   -1.5835078E+04    3.6619103E-02    7.1906777E+06   -1.7291704E-02    7.2263299E+06
    3.51   800.000   -2.952E+02    7.0933650E+06   -1.6499190E+04    3.7911629E-02    7.0712875E+06   -1.5074394E-02    7.1070689E+06
    3.52   800.000   -2.957E+02    6.9924450E+06   -1.7125893E+04    3.9164995E-02    6.9687976E+06   -1.2713827E-02    7.0043587E+06
    3.53   800.000   -2.962E+02    6.9090512E+06   -1.7699318E+04    4.0366201E-02    6.8836395E+06   -1.0258193E-02    6.9186388E+06
    3.54   800.000   -2.967E+02    6.8432631E+06   -1.8204985E+04    4.1498745E-02    6.8159323E+06   -7.7538646E-03    6.8500312E+06
    3.55   800.000   -2.972E+02    6.7948906E+06   -1.8630801E+04    4.2542945E-02    6.7655300E+06   -5.2433333E-03    6.7983876E+06
    3.56   800.000   -2.977E+02    6.7635116E+06   -1.8967551E+04    4.3476503E-02    6.7320585E+06   -2.7635607E-03    6.7633266E+06
    3.57   800.000   -2.983E+02    6.7484995E+06   -1.9208940E+04    4.4275354E-02    6.7149414E+06   -3.4483729E-04    6.7442618E+06
    3.58   800.000   -2.988E+02    6.7490414E+06   -1.9351277E+04    4.4914782E-02    6.7134171E+06    1.9898141E-03    6.7404207E+06
    3.59   800.000   -2.993E+02    6.7641487E+06   -1.9392976E+04    4.5370806E-02    6.7265472E+06    4.2247086E-03    6.7508557E+06
    3.60   800.000   -2.999E+02    6.7926626E+06   -1.9334021E+04    4.5621734E-02    6.7532202E+06    6.3511037E-03    6.7744517E+06
    3.61   800.000   -3.004E+02    6.8332568E+06   -1.9175531E+04    4.5649817E-02    6.7921535E+06    8.3664293E-03    6.8099302E+06
    3.62   800.000   -3.010E+02    6.8844429E+06   -1.8919500E+04    4.5442827E-02    6.8418975E+06    1.0273251E-02    6.8558568E+06
    3.63   800.000   -3.015E+02    6.9445810E+06   -1.8568746E+04    4.4995443E-02    6.9008455E+06    1.2078084E-02    6.9106531E+06
    3.64   800.000   -3.021E+02    7.0118994E+06   -1.8127025E+04    4.4310264E-02    6.9672546E+06    1.3790164E-02    6.9726169E+06
    3.65   800.000   -3.026E+02    7.0845274E+06   -1.7599262E+04    4.3398365E-02    7.0392776E+06    1.5420290E-02    7.0399537E+06
    3.66   800.000   -3.032E+02    7.1605405E+06   -1.6991788E+04    4.2279285E-02    7.1150094E+06    1.6979797E-02    7.1108194E+06
    3.67   800.000   -3.037E+02    7.2380187E+06   -1.6312530E+04    4.0980476E-02    7.1925450E+06    1.8479751E-02    7.1833740E+06
    3.68   800.000   -3.043E+02    7.3151151E+06   -1.5571081E+04    3.9536232E-02    7.2700472E+06    1.9930359E-02    7.2558445E+06
    3.69   800.000   -3.048E+02    7.3901278E+06   -1.4778622E+04    3.7986190E-02    7.3458180E+06    2.1340615E-02    7.3265905E+06
    3.70   800.000   -3.054E+02    7.4615711E+06   -1.3947709E+04    3.6373539E-02    7.4183675E+06    2.2718124E-02    7.3941700E+06
    3.71   800.000   -3.059E+02    7.5282355E+06   -1.3091943E+04    3.4743038E-02    7.4864727E+06    2.4069031E-02    7.4573954E+06
    3.72   800.000   -3.065E+02    7.5892319E+06   -1.2225556E+04    3.3138970E-02    7.5492207E+06    2.5397974E-02    7.5153764E+06
    3.73   800.000   -3.070E+02    7.6440125E+06   -1.1362932E+04    3.1603126E-02    7.6060285E+06    2.6707944E-02    7.5675429E+06
    3.74   800.000   -3.075E+02    7.6923673E+06   -1.0518100E+04    3.0172910E-02    7.6566407E+06    2.7999995E-02    7.6136464E+06
    3.75   800.000   -3.080E+02    7.7343953E+06   -9.7041889E+03    2.8879633E-02    7.7011017E+06    2.9272760E-02    7.6537373E+06
    3.76   800.000   -3.085E+02    7.7704544E+06   -8.9328846E+03    2.7747065E-02    7.7397083E+06    3.0521799E-02    7.6881238E+06
    3.77   800.000   -3.090E+02    7.8010959E+06   -8.2139235E+03    2.6790316E-02    7.7729473E+06    3.1738867E-02    7.7173133E+06
    3.78   800.000   -3.095E+02    7.8269905E+06   -7.5547029E+03    2.6015112E-02    7.8014250E+06    3.2911236E-02    7.7419450E+06
    3.79   800.000   -3.100E+02    7.8488545E+06   -6.9600949E+03    2.5417520E-02    7.8257964E+06    3.4021238E-02    7.7627199E+06
    3.80   800.000   -3.105E+02    7.8673822E+06   -6.4325456E+03    2.4984162E-02    7.8467009E+06    3.5046170E-02    7.7803346E+06
    3.81   800.000   -3.109E+02    7.8831915E+06   -5.9725010E+03    2.4692944E-02    7.8647100E+06    3.5958689E-02    7.7954255E+06
    3.82   800.000   -3.114E+02    7.8967857E+06   -5.5791285E+03    2.4514277E-02    7.8802904E+06    3.6727719E-02    7.8085274E+06
    3.83   800.000   -3.118E+02    7.9085339E+06   -5.2512338E+03    2.4412757E-02    7.8937859E+06    3.7319869E-02    7.8200491E+06
    3.84   800.000   -3.123E+02    7.9186699E+06   -4.9882170E+03    2.4349216E-02    7.9054155E+06    3.7701232E-02    7.8302674E+06
    3.85   800.000   -3.127E+02    7.9273078E+06   -4.7908947E+03    2.4283010E-02    7.9152894E+06    3.7839442E-02    7.8393368E+06
    3.86   800.000   -3.131E+02    7.9344714E+06   -4.6620428E+03    2.4174380E-02    7.9234367E+06    3.7705773E-02    7.8473141E+06
    3.87   800.000   -3.135E+02    7.9401324E+06   -4.6065694E+03    2.3986694E-02    7.9298431E+06    3.7277137E-02    7.8541926E+06
    3.88   800.000   -3.139E+02    7.9442530E+06   -4.6312995E+03    2.3688378E-02    7.9344919E+06    3.6537772E-02    7.8599420E+06
    3.89   800.000   -3.143E+02    7.9468274E+06   -4.7444124E+03    2.3254350E-02    7.9374033E+06    3.5480518E-02    7.8645491E+06
    3.90   800.000   -3.147E+02    7.9479163E+06   -4.9546239E+03    2.2666862E-02    7.9386672E+06    3.4107591E-02    7.8680526E+06
    3.91   800.000   -3.151E+02    7.9476685E+06   -5.2702281E+03    2.1915714E-02    7.9384622E+06    3.2430815E-02    7.8705682E+06
    3.92   800.000   -3.154E+02    7.9463279E+06   -5.6981254E+03    2.0997890E-02    7.9370597E+06    3.0471336E-02    7.8722989E+06
    3.93   800.000   -3.158E+02    7.9442211E+06   -6.2429540E+03    1.9916772E-02    7.9348093E+06    2.8258882E-02    7.8735280E+06
    3.94   800.000   -3.162E+02    7.9417287E+06   -6.9064222E+03    1.8681073E-02    7.9321071E+06    2.5830633E-02    7.8745950E+06
    3.95   800.000   -3.165E+02    7.9392412E+06   -7.6869036E+03    1.7303717E-02    7.9293500E+06    2.3229798E-02    7.8758552E+06
    3.96   800.000   -3.169E+02    7.9371058E+06   -8.5793148E+03    1.5800755E-02    7.9268817E+06    2.0503974E-02    7.8776291E+06
    3.97   800.000   -3.172E+02    7.9355699E+06   -9.5752481E+03    1.4190438E-02    7.9249367E+06    1.7703343E-02    7.8801470E+06
    3.98   800.000   -3.175E+02    7.9347301E+06   -1.0663292E+04    1.2492413E-02    7.9235894E+06    1.4878781E-02    7.8834954E+06
    3.99   800.000   -3.178E+02    7.9344900E+06   -1.1829441E+04    1.0727032E-02    7.9227159E+06    1.2079946E-02    7.8875735E+06
    4.00   800.000   -3.182E+02    7.9345352E+06   -1.3057484E+04    8.9146713E-03    7.9219708E+06    9.3534465E-03    7.8920634E+06
    4.01   800.000   -3.185E+02    7.9343264E+06   -1.4329278E+04    7.0750414E-03    7.9207856E+06    6.7412169E-03    7.8964196E+06
    4.02   800.000   -3.188E+02    7.9331132E+06   -1.5624821E+04    5.2264839E-03    7.9183857E+06    4.2792564E-03    7.8998788E+06
    4.03   800.000   -3.191E+02    7.9299655E+06   -1.6922130E+04    3.3853148E-03    7.9138266E+06    1.9968566E-03    7.9014891E+06
    4.04   800.000   -3.193E+02    7.9238200E+06   -1.8196936E+04    1.5653236E-03    7.9060443E+06   -8.3580030E-05    7.9001556E+06
    4.05   800.000   -3.196E+02    7.9135377E+06   -1.9422323E+04   -2.2245565E-04    7.8939149E+06   -1.9461147E-03    7.8946977E+06
    4.06   800.000   -3.199E+02    7.8979637E+06   -2.0568444E+04   -1.9696236E-03    7.8763173E+06   -3.5803102E-03    7.8839127E+06
    4.07   800.000   -3.202E+02    7.8759864E+06   -2.1602499E+04   -3.6699355E-03    7.8521918E+06   -4.9798902E-03    7.8666382E+06
    4.08   800.000   -3.205E+02    7.8465894E+06   -2.2489119E+04   -5.3185404E-03    7.8205918E+06   -6.1412381E-03    7.8418099E+06
    4.09   800.000   -3.207E+02    7.8088949E+06   -2.3191259E+04   -6.9110967E-03    7.7807235E+06   -7.0619793E-03    7.8085097E+06
    4.10   800.000   -3.210E+02    7.7621967E+06   -2.3671620E+04   -8.4429654E-03    7.7319756E+06   -7.7398706E-03    7.7660042E+06
    4.11   800.000   -3.212E+02    7.7059851E+06   -2.3894518E+04   -9.9086754E-03    7.6739388E+06   -8.1721691E-03    7.7137726E+06
    4.12   800.000   -3.215E+02    7.6399667E+06   -2.3828049E+04   -1.1301807E-02    7.6064182E+06   -8.3555709E-03    7.6515268E+06
    4.13   800.000   -3.217E+02    7.5640804E+06   -2.3446324E+04   -1.2615344E-02    7.5294432E+06   -8.2867189E-03    7.5792264E+06
    4.14   800.000   -3.220E+02    7.4785121E+06   -2.2731534E+04   -1.3842448E-02    7.4432746E+06   -7.9631892E-03    7.4970881E+06
    4.15   800.000   -3.222E+02    7.3837066E+06   -2.1675639E+04   -1.4977502E-02    7.3484106E+06   -7.3847856E-03    7.4055923E+06
    4.16   800.000   -3.225E+02    7.2803757E+06   -2.0281490E+04   -1.6017212E-02    7.2455891E+06   -6.5549215E-03    7.3054823E+06
    4.17   800.000   -3.227E+02    7.1694970E+06   -1.8563297E+04   -1.6961529E-02    7.1357845E+06   -5.4818449E-03    7.1977572E+06
    4.18   800.000   -3.229E+02    7.0523013E+06   -1.6546398E+04   -1.7814154E-02    7.0201938E+06   -4.1794794E-03    7.0836526E+06
    4.19   800.000   -3.232E+02    6.9302447E+06   -1.4266390E+04   -1.8582512E-02    6.9002117E+06   -2.6677061E-03    6.9646087E+06
    4.20   800.000   -3.234E+02    6.8049651E+06   -1.1767680E+04   -1.9277116E-02    6.7773911E+06   -9.7199745E-04    6.8422257E+06
    4.21   800.000   -3.237E+02    6.6782248E+06   -9.1016225E+03   -1.9910431E-02    6.6533927E+06    8.7757946E-04    6.7182071E+06
    4.22   800.000   -3.239E+02    6.5518432E+06   -6.3243396E+03   -2.0495384E-02    6.5299250E+06    2.8478680E-03    6.5942963E+06
    4.23   800.000   -3.241E+02    6.4276252E+06   -3.4943868E+03   -2.1043796E-02    6.4086800E+06    4.9044243E-03    6.4722096E+06
    4.24   800.000   -3.244E+02    6.3072913E+06   -6.7036423E+02   -2.1564963E-02    6.2912707E+06    7.0133568E-03    6.3535734E+06
    4.25   800.000   -3.246E+02    6.1924168E+06    2.0914226E+03   -2.2064602E-02    6.1791752E+06    9.1429460E-03    6.2398690E+06
    4.26   800.000   -3.249E+02    6.0843821E+06    4.7391731E+03   -2.2544288E-02    6.0736904E+06    1.1264837E-02    6.1323901E+06
    4.27   800.000   -3.251E+02    5.9843389E+06    7.2275973E+03   -2.3001388E-02    5.9759005E+06    1.3354686E-02    6.0322142E+06
    4.28   800.000   -3.254E+02    5.8931915E+06    9.5196398E+03   -2.3429427E-02    5.8866584E+06    1.5392240E-02    5.9401896E+06
    4.29   800.000   -3.257E+02    5.8115927E+06    1.1587843E+04   -2.3818771E-02    5.8065799E+06    1.7360925E-02    5.8569342E+06
    4.30   800.000   -3.259E+02    5.7399504E+06    1.3415270E+04   -2.4157465E-02    5.7360502E+06    1.9247077E-02    5.7828464E+06
    4.31   800.000   -3.262E+02    5.6784441E+06    1.4995917E+04   -2.4432135E-02    5.6752378E+06    2.1038978E-02    5.7181225E+06
    4.32   800.000   -3.265E+02    5.6270473E+06    1.6334582E+04   -2.4628846E-02    5.6241155E+06    2.2725857E-02    5.6627806E+06
    4.33   800.000   -3.267E+02    5.5855549E+06    1.7446185E+04   -2.4733904E-02    5.5824876E+06    2.4296975E-02    5.6166877E+06
    4.34   800.000   -3.270E+02    5.5536153E+06    1.8354580E+04   -2.4734564E-02    5.5500201E+06    2.5740896E-02    5.5795895E+06
    4.35   800.000   -3.273E+02    5.5307660E+06    1.9090959E+04   -2.4619667E-02    5.5262772E+06    2.7045003E-02    5.5511438E+06
    4.36   800.000   -3.276E+02    5.5164745E+06    1.9691912E+04   -2.4380192E-02    5.5107614E+06    2.8195277E-02    5.5309562E+06
    4.37   800.000   -3.279E+02    5.5101826E+06    2.0197282E+04   -2.4009710E-02    5.5029563E+06    2.9176359E-02    5.5186180E+06
    4.38   800.000   -3.282E+02    5.5113523E+06    2.0647886E+04   -2.3504740E-02    5.5023729E+06    2.9971874E-02    5.5137460E+06
    4.39   800.000   -3.285E+02    5.5195133E+06    2.1083172E+04   -2.2864978E-02    5.5085944E+06    3.0564969E-02    5.5160217E+06
    4.40   800.000   -3.288E+02    5.5343059E+06    2.1538891E+04   -2.2093430E-02    5.5213178E+06    3.0938996E-02    5.5252275E+06
    4.41   800.000   -3.291E+02    5.5555197E+06    2.2044832E+04   -2.1196454E-02    5.5403894E+06    3.1078257E-02    5.5412784E+06
    4.42   800.000   -3.294E+02    5.5831222E+06    2.2622723E+04   -2.0183777E-02    5.5658327E+06    3.0968701E-02    5.5642469E+06
    4.43   800.000   -3.297E+02    5.6172791E+06    2.3284412E+04   -1.9068514E-02    5.5978657E+06    3.0598496E-02    5.5943787E+06
    4.44   800.000   -3.300E+02    5.6583626E+06    2.4030494E+04   -1.7867216E-02    5.6369086E+06    2.9958416E-02    5.6321010E+06
    4.45   800.000   -3.303E+02    5.7069508E+06    2.4849559E+04   -1.6599946E-02    5.6835814E+06    2.9042048E-02    5.6780210E+06
    4.46   800.000   -3.306E+02    5.7638169E+06    2.5718221E+04   -1.5290310E-02    5.7386934E+06    2.7845849E-02    5.7329174E+06
    4.47   800.000   -3.309E+02    5.8299109E+06    2.6602044E+04   -1.3965365E-02    5.8032248E+06    2.6369159E-02    5.7977244E+06
    4.48   800.000   -3.312E+02    5.9063359E+06    2.7457394E+04   -1.2655276E-02    5.8783019E+06    2.4614231E-02    5.8735103E+06
    4.49   800.000   -3.315E+02    5.9943174E+06    2.8234130E+04   -1.1392628E-02    5.9651677E+06    2.2586394E-02    5.9614513E+06
    4.50   800.000   -3.318E+02    6.0951698E+06    2.8878963E+04   -1.0211327E-02    6.0651477E+06    2.0294345E-02    6.0628006E+06
    4.51   800.000   -3.322E+02    6.2102579E+06    2.9339208E+04   -9.1450840E-03    6.1796113E+06    1.7750587E-02    6.1788545E+06
    4.52   800.000   -3.325E+02    6.3409552E+06    2.9566603E+04   -8.2255602E-03    6.3099300E+06    1.4971910E-02    6.3109150E+06
    4.53   800.000   -3.328E+02    6.4885988E+06    2.9520859E+04   -7.4803183E-03    6.4574327E+06    1.1979819E-02    6.4602490E+06
    4.54   800.000   -3.331E+02    6.6544407E+06    2.9172639E+04   -6.9307782E-03    6.6233564E+06    8.8007788E-03    6.6280436E+06
    4.55   800.000   -3.334E+02    6.8395947E+06    2.8505690E+04   -6.5903913E-03    6.8087949E+06    5.4661574E-03    6.8153581E+06
    4.56   800.000   -3.337E+02    7.0449798E+06    2.7517992E+04   -6.4632320E-03    7.0146426E+06    2.0118059E-03    7.0230703E+06
    4.57   800.000   -3.341E+02    7.2712581E+06    2.6221837E+04   -6.5431583E-03    7.2415350E+06   -1.5227416E-03    7.2518184E+06
    4.58   800.000   -3.344E+02    7.5187678E+06    2.4642896E+04   -6.8136240E-03    7.4897845E+06   -5.0953886E-03    7.5019358E+06
    4.59   800.000   -3.347E+02    7.7874522E+06    2.2818400E+04   -7.2481539E-03    7.7593127E+06   -8.6628033E-03    7.7733824E+06
    4.60   800.000   -3.351E+02    8.0767864E+06    2.0794649E+04   -7.8114342E-03    8.0495809E+06   -1.2181805E-02    8.0656708E+06
    4.61   800.000   -3.354E+02    8.3857058E+06    1.8624090E+04   -8.4609243E-03    8.3595211E+06   -1.5610655E-02    8.3777945E+06
    4.62   800.000   -3.358E+02    8.7125420E+06    1.6362199E+04   -9.1488841E-03    8.6874747E+06   -1.8910136E-02    8.7081605E+06
    4.63   800.000   -3.361E+02    9.0549736E+06    1.4064409E+04   -9.8247017E-03    9.0311439E+06   -2.2044351E-02    9.0545370E+06
    4.64   800.000   -3.365E+02    9.4100015E+06    1.1783220E+04   -1.0437417E-02    9.3875656E+06   -2.4981239E-02    9.4140226E+06
    4.65   800.000   -3.368E+02    9.7739577E+06    9.5656624E+03   -1.0938332E-02    9.7531167E+06   -2.7692882E-02    9.7830476E+06
    4.66   800.000   -3.372E+02    1.0142555E+07    7.4511779E+03   -1.1283592E-02    1.0123559E+07   -3.0155682E-02    1.0157416E+07
    4.67   800.000   -3.376E+02    1.0510987E+07    5.4700399E+03   -1.1436588E-02    1.0494128E+07   -3.2350510E-02    1.0532394E+07
    4.68   800.000   -3.379E+02    1.0874068E+07    3.6423714E+03   -1.1370026E-02    1.0859673E+07   -3.4262899E-02    1.0902846E+07
    4.69   800.000   -3.383E+02    1.1226428E+07    1.9778370E+03   -1.1067467E-02    1.1214837E+07   -3.5883284E-02    1.1263413E+07
    4.70   800.000   -3.387E+02    1.1562730E+07    4.7603895E+02   -1.0524186E-02    1.1554269E+07   -3.7207245E-02    1.1608729E+07
    4.71   800.000   -3.391E+02    1.1877903E+07   -8.7239379E+02   -9.7472224E-03    1.1872853E+07   -3.8235662E-02    1.1933647E+07
    4.72   800.000   -3.395E+02    1.2167372E+07   -2.0840933E+03   -8.7545863E-03    1.2165940E+07   -3.8974682E-02    1.2233466E+07
    4.73   800.000   -3.399E+02    1.2427252E+07   -3.1807426E+03   -7.5736961E-03    1.2429539E+07   -3.9435384E-02    1.2504132E+07
    4.74   800.000   -3.403E+02    1.2654496E+07   -4.1865344E+03   -6.2392080E-03    1.2660478E+07   -3.9633104E-02    1.2742383E+07
    4.75   800.000   -3.407E+02    1.2846978E+07   -5.1254996E+03   -4.7904991E-03    1.2856489E+07   -3.9586419E-02    1.2945847E+07
    4.76   800.000   -3.411E+02    1.3003507E+07   -6.0189211E+03   -3.2690947E-03    1.3016235E+07   -3.9315866E-02    1.3113064E+07
    4.77   800.000   -3.415E+02    1.3123781E+07   -6.8830585E+03   -1.7163324E-03    1.3139278E+07   -3.8842514E-02    1.3243456E+07
    4.78   800.000   -3.419E+02    1.3208292E+07   -7.7274008E+03   -1.7149180E-04    1.3225993E+07   -3.8186591E-02    1.3337246E+07
    4.79   800.000   -3.423E+02    1.3258205E+07   -8.5536363E+03    1.3294686E-03    1.3277454E+07   -3.7366335E-02    1.3395353E+07
    4.80   800.000   -3.427E+02    1.3275232E+07   -9.3554677E+03    2.7545397E-03    1.3295315E+07   -3.6397287E-02    1.3419275E+07
    4.81   800.000   -3.431E+02    1.3261509E+07   -1.0119304E+04    4.0757333E-03    1.3281700E+07   -3.5292150E-02    1.3410992E+07
    4.82   800.000   -3.435E+02    1.3219510E+07   -1.0825749E+04    5.2687590E-03    1.3239100E+07   -3.4061300E-02    1.3372873E+07
    4.83   800.000   -3.439E+02    1.3151966E+07   -1.1451681E+04    6.3125154E-03    1.3170309E+07   -3.2713905E-02    1.3307613E+07
    4.84   800.000   -3.443E+02    1.3061819E+07   -1.1972644E+04    7.1886070E-03    1.3078359E+07   -3.1259517E-02    1.3218180E+07
    4.85   800.000   -3.447E+02    1.2952174E+07   -1.2365227E+04    7.8810651E-03    1.2966474E+07   -2.9709864E-02    1.3107764E+07
    4.86   800.000   -3.451E+02    1.2826257E+07   -1.2609149E+04    8.3763804E-03    1.2838011E+07   -2.8080539E-02    1.2979724E+07
    4.87   800.000   -3.455E+02    1.2687358E+07   -1.2688844E+04    8.6638807E-03    1.2696399E+07   -2.6392267E-02    1.2837518E+07
    4.88   800.000   -3.459E+02    1.2538762E+07   -1.2594437E+04    8.7363973E-03    1.2545054E+07   -2.4671471E-02    1.2684619E+07
    4.89   800.000   -3.463E+02    1.2383655E+07   -1.2322132E+04    8.5911037E-03    1.2387283E+07   -2.2950043E-02    1.2524411E+07
    4.90   800.000   -3.467E+02    1.2225030E+07   -1.1874078E+04    8.2303601E-03    1.2226181E+07   -2.1264334E-02    1.2360075E+07
    4.91   800.000   -3.471E+02    1.2065578E+07   -1.1257828E+04    7.6623877E-03    1.2064514E+07   -1.9653590E-02    1.2194480E+07
    4.92   800.000   -3.474E+02    1.1907585E+07   -1.0485514E+04    6.9016168E-03    1.1904619E+07   -1.8158143E-02    1.2030068E+07
    4.93   800.000   -3.478E+02    1.1752838E+07   -9.5728169E+03    5.9686014E-03    1.1748315E+07   -1.6817713E-02    1.1868762E+07
    4.94   800.000   -3.482E+02    1.1602558E+07   -8.5378171E+03    4.8894652E-03    1.1596827E+07   -1.5670116E-02    1.1711893E+07
    4.95   800.000   -3.486E+02    1.1457340E+07   -7.3997490E+03    3.6949222E-03    1.1450739E+07   -1.4750511E-02    1.1560149E+07
    4.96   800.000   -3.490E+02    1.1317137E+07   -6.1777057E+03    2.4189819E-03    1.1309985E+07   -1.4091132E-02    1.1413559E+07
    4.97   800.000   -3.493E+02    1.1181272E+07   -4.8893337E+03    1.0974945E-03    1.1173852E+07   -1.3721298E-02    1.1271504E+07
    4.98   800.000   -3.497E+02    1.1048475E+07   -3.5495921E+03   -2.3329613E-04    1.1041039E+07   -1.3667335E-02    1.1132764E+07
    4.99   800.000   -3.501E+02    1.0916972E+07   -2.1696873E+03   -1.5380533E-03    1.0909738E+07   -1.3952086E-02    1.0995604E+07
    5.00   800.000   -3.505E+02    1.0784586E+07   -7.5633224E+02   -2.7834069E-03    1.0777742E+07   -1.4593735E-02    1.0857878E+07
# T(K) = 900.00   Npoints =    1001   V(cm^3) =  1.139E-20
   -5.00   900.000    3.635E+02    2.9374143E+06    2.5944565E+03    1.5152449E-03    2.9284950E+06    1.3110061E-03    2.9469950E+06
   -4.99   900.000    3.625E+02    2.9739562E+06    2.3963418E+03    1.5284990E-03    2.9644039E+06    1.3131468E-03    2.9854302E+06
   -4.98   900.000    3.616E+02    3.0063274E+06    2.1931254E+03    1.5122812E-03    2.9961733E+06    1.2703764E-03    3.0195887E+06
   -4.97   900.000    3.606E+02    3.0347842E+06    1.9864433E+03    1.4741167E-03    3.0240741E+06    1.1810480E-03    3.0497231E+06
   -4.96   900.000    3.597E+02    3.0595875E+06    1.7773646E+03    1.4206154E-03    3.0483810E+06    1.0446981E-03    3.0760925E+06
   -4.95   900.000    3.588E+02    3.0809872E+06    1.5664280E+03    1.3569089E-03    3.0693567E+06    8.6225061E-04    3.0989459E+06
   -4.94   900.000    3.578E+02    3.0992074E+06    1.3537374E+03    1.2862561E-03    3.0872366E+06    6.3621306E-04    3.1185069E+06
   -4.93   900.000    3.569E+02    3.1144339E+06    1.1391051E+03    1.2098420E-03    3.1022152E+06    3.7083901E-04    3.1349601E+06
   -4.92   900.000    3.560E+02    3.1268041E+06    9.2222242E+02    1.1267749E-03    3.1144362E+06    7.2229929E-05    3.1484410E+06
   -4.91   900.000    3.552E+02    3.1364019E+06    7.0283268E+02    1.0342710E-03    3.1239857E+06   -2.5165170E-04    3.1590303E+06
   -4.90   900.000    3.543E+02    3.1432558E+06    4.8088427E+02    9.2799755E-04    3.1308915E+06   -5.9108350E-04    3.1667529E+06
   -4.89   900.000    3.534E+02    3.1473427E+06    2.5664155E+02    8.0253166E-04    3.1351261E+06   -9.3481831E-04    3.1715815E+06
   -4.88   900.000    3.526E+02    3.1485949E+06    3.0742010E+01    6.5188426E-04    3.1366147E+06   -1.2704642E-03    3.1734453E+06
   -4.87   900.000    3.517E+02    3.1469118E+06   -1.9580348E+02    4.7003396E-04    3.1352466E+06   -1.5850076E-03    3.1722411E+06
   -4.86   900.000    3.509E+02    3.1421728E+06   -4.2166044E+02    2.5142099E-04    3.1308891E+06   -1.8654614E-03    3.1678477E+06
   -4.85   900.000    3.501E+02    3.1342514E+06   -6.4525584E+02   -8.6384801E-06    3.1234025E+06   -2.0996038E-03    3.1601402E+06
   -4.84   900.000    3.493E+02    3.1230289E+06   -8.6487974E+02   -3.1364229E-04    3.1126545E+06   -2.2767552E-03    3.1490042E+06
   -4.83   900.000    3.485E+02    3.1084069E+06   -1.0787842E+03   -6.6570411E-04    3.0985327E+06   -2.3885271E-03    3.1343474E+06
   -4.82   900.000    3.477E+02    3.0903153E+06   -1.2852642E+03   -1.0654588E-03    3.0809544E+06   -2.4294692E-03    3.1161088E+06
   -4.81   900.000    3.469E+02    3.0687194E+06   -1.4827095E+03   -1.5120513E-03    3.0598729E+06   -2.3975433E-03    3.0942634E+06
   -4.80   900.000    3.461E+02    3.0436211E+06   -1.6696263E+03   -2.0031837E-03    3.0352802E+06   -2.2943635E-03    3.0688244E+06
   -4.79   900.000    3.453E+02    3.0150587E+06   -1.8446293E+03   -2.5351950E-03    3.0072061E+06   -2.1251625E-03    3.0398412E+06
   -4.78   900.000    3.446E+02    2.9831030E+06   -2.0064136E+03   -3.1031544E-03    2.9757151E+06   -1.8984756E-03    3.0073953E+06
   -4.77   900.000    3.438E+02    2.9478522E+06   -2.1537152E+03   -3.7009594E-03    2.9409005E+06   -1.6255623E-03    2.9715947E+06
   -4.76   900.000    3.431E+02    2.9094254E+06   -2.2852719E+03   -4.3214360E-03    2.9028788E+06   -1.3196201E-03    2.9325670E+06
   -4.75   900.000    3.423E+02    2.8679567E+06   -2.3997928E+03   -4.9564517E-03    2.8617825E+06   -9.9486619E-04    2.8904533E+06
   -4.74   900.000    3.416E+02    2.8235887E+06   -2.4959448E+03   -5.5970520E-03    2.8177543E+06   -6.6557919E-04    2.8454025E+06
   -4.73   900.000    3.408E+02    2.7764681E+06   -2.5723613E+03   -6.2336346E-03    2.7709424E+06   -3.4519352E-04    2.7975665E+06
   -4.72   900.000    3.401E+02    2.7267417E+06   -2.6276735E+03   -6.8561727E-03    2.7214958E+06   -4.5531066E-05    2.7470971E+06
   -4.71   900.000    3.394E+02    2.6745543E+06   -2.6605670E+03   -7.4544925E-03    2.6695622E+06    2.2376799E-04    2.6941438E+06
   -4.70   900.000    3.387E+02    2.6200468E+06   -2.6698576E+03   -8.0186024E-03    2.6152863E+06    4.5557936E-04    2.6388530E+06
   -4.69   900.000    3.380E+02    2.5633563E+06   -2.6545832E+03   -8.5390636E-03    2.5588087E+06    6.4538935E-04    2.5813671E+06
   -4.68   900.000    3.373E+02    2.5046156E+06   -2.6141031E+03   -9.0073827E-03    2.5002662E+06    7.9117381E-04    2.5218253E+06
   -4.67   900.000    3.366E+02    2.4439547E+06   -2.5481961E+03   -9.4164013E-03    2.4397925E+06    8.9310850E-04    2.4603641E+06
   -4.66   900.000    3.359E+02    2.3815016E+06   -2.4571479E+03   -9.7606491E-03    2.3775187E+06    9.5317181E-04    2.3971178E+06
   -4.65   900.000    3.353E+02    2.3173839E+06   -2.3418195E+03   -1.0036628E-02    2.3135752E+06    9.7470523E-04    2.3322204E+06
   -4.64   900.000    3.346E+02    2.2517305E+06   -2.2036876E+03   -1.0242995E-02    2.2480932E+06    9.6199081E-04    2.2658067E+06
   -4.63   900.000    3.340E+02    2.1846739E+06   -2.0448542E+03   -1.0380617E-02    2.1812065E+06    9.1989115E-04    2.1980139E+06
   -4.62   900.000    3.333E+02    2.1163520E+06   -1.8680203E+03   -1.0452485E-02    2.1130541E+06    8.5357851E-04    2.1289843E+06
   -4.61   900.000    3.327E+02    2.0469113E+06   -1.6764250E+03   -1.0463476E-02    2.0437826E+06    7.6835899E-04    2.0588671E+06
   -4.60   900.000    3.321E+02    1.9765087E+06   -1.4737507E+03   -1.0419996E-02    1.9735487E+06    6.6957960E-04    1.9878210E+06
   -4.59   900.000    3.315E+02    1.9053141E+06   -1.2639992E+03   -1.0329517E-02    1.9025215E+06    5.6259205E-04    1.9160166E+06
   -4.58   900.000    3.309E+02    1.8335123E+06   -1.0513452E+03   -1.0200052E-02    1.8308850E+06    4.5274019E-04    1.8436387E+06
   -4.57   900.000    3.304E+02    1.7613047E+06   -8.3997532E+02   -1.0039633E-02    1.7588392E+06    3.4533746E-04    1.7708877E+06
   -4.56   900.000    3.298E+02    1.6889095E+06   -6.3392334E+02   -9.8558229E-03    1.6866014E+06    2.4560746E-04    1.6979806E+06
   -4.55   900.000    3.292E+02    1.6165619E+06   -4.3691259E+02   -9.6553179E-03    1.6144055E+06    1.5857148E-04    1.6251508E+06
   -4.54   900.000    3.287E+02    1.5445129E+06   -2.5221733E+02   -9.4436707E-03    1.5425015E+06    8.8880801E-05    1.5526470E+06
   -4.53   900.000    3.282E+02    1.4730262E+06   -8.2552252E+01   -9.2251483E-03    1.4711527E+06    4.0605292E-05    1.4807309E+06
   -4.52   900.000    3.277E+02    1.4023757E+06    7.0003056E+01   -9.0027272E-03    1.4006322E+06    1.7001615E-05    1.4096737E+06
   -4.51   900.000    3.272E+02    1.3328405E+06    2.0404163E+02   -8.7782089E-03    1.3312194E+06    2.0291578E-05    1.3397524E+06
   -4.50   900.000    3.267E+02    1.2647005E+06    3.1882963E+02   -8.5524273E-03    1.2631941E+06    5.1483289E-05    1.2712443E+06
   -4.49   900.000    3.262E+02    1.1982315E+06    4.1427409E+02   -8.3255124E-03    1.1968325E+06    1.1026410E-04    1.2044227E+06
   -4.48   900.000    3.257E+02    1.1336995E+06    4.9086428E+02   -8.0971731E-03    1.1324011E+06    1.9498576E-04    1.1395513E+06
   -4.47   900.000    3.252E+02    1.0713565E+06    5.4959439E+02   -7.8669630E-03    1.0701527E+06    3.0275034E-04    1.0768801E+06
   -4.46   900.000    3.248E+02    1.0114363E+06    5.9187491E+02   -7.6345041E-03    1.0103217E+06    4.2959220E-04    1.0166408E+06
   -4.45   900.000    3.243E+02    9.5415047E+05    6.1943925E+02   -7.3996494E-03    9.5312039E+05    5.7073913E-04    9.5904347E+05
   -4.44   900.000    3.239E+02    8.9968595E+05    6.3425063E+02   -7.1625764E-03    8.9873648E+05    7.2092656E-04    9.0427379E+05
   -4.43   900.000    3.234E+02    8.4820237E+05    6.3841322E+02   -6.9238137E-03    8.4733026E+05    8.7473361E-04    8.5249064E+05
   -4.42   900.000    3.230E+02    7.9983037E+05    6.3408974E+02   -6.6842081E-03    7.9903304E+05    1.0269094E-03    8.0382440E+05
   -4.41   900.000    3.225E+02    7.5467021E+05    6.2342719E+02   -6.4448452E-03    7.5394566E+05    1.1726620E-03    7.5837551E+05
   -4.40   900.000    3.220E+02    7.1279070E+05    6.0849138E+02   -6.2069385E-03    7.1213745E+05    1.3078893E-03    7.1621339E+05
   -4.39   900.000    3.216E+02    6.7422832E+05    5.9121084E+02   -5.9717025E-03    6.7364537E+05    1.4293393E-03    6.7737551E+05
   -4.38   900.000    3.211E+02    6.3898676E+05    5.7333014E+02   -5.7402241E-03    6.3847349E+05    1.5346973E-03    6.4186675E+05
   -4.37   900.000    3.206E+02    6.0703657E+05    5.5637271E+02   -5.5133449E-03    6.0659270E+05    1.6226022E-03    6.0965897E+05
   -4.36   900.000    3.200E+02    5.7831537E+05    5.4161330E+02   -5.2915640E-03    5.7794083E+05    1.6926032E-03    5.8069110E+05
   -4.35   900.000    3.195E+02    5.5272845E+05    5.3005986E+02   -5.0749692E-03    5.5242332E+05    1.7450699E-03    5.5486958E+05
   -4.34   900.000    3.189E+02    5.3015003E+05    5.2244485E+02   -4.8632001E-03    5.2991442E+05    1.7810685E-03    5.3206951E+05
   -4.33   900.000    3.183E+02    5.1042515E+05    5.1922574E+02   -4.6554454E-03    5.1025914E+05    1.8022206E-03    5.1213653E+05
   -4.32   900.000    3.177E+02    4.9337239E+05    5.2059445E+02   -4.4504726E-03    4.9327594E+05    1.8105549E-03    4.9488949E+05
   -4.31   900.000    3.170E+02    4.7878734E+05    5.2649517E+02   -4.2466873E-03    4.7876018E+05    1.8083634E-03    4.8012391E+05
   -4.30   900.000    3.163E+02    4.6644676E+05    5.3664976E+02   -4.0422172E-03    4.6648832E+05    1.7980684E-03    4.6761625E+05
   -4.29   900.000    3.155E+02    4.5611343E+05    5.5058987E+02   -3.8350152E-03    4.5622278E+05    1.7821061E-03    4.5712876E+05
   -4.28   900.000    3.147E+02    4.4754146E+05    5.6769421E+02   -3.6229761E-03    4.4771720E+05    1.7628269E-03    4.4841492E+05
   -4.27   900.000    3.138E+02    4.4048194E+05    5.8722919E+02   -3.4040609E-03    4.4072211E+05    1.7424154E-03    4.4122511E+05
   -4.26   900.000    3.128E+02    4.3468865E+05    6.0839096E+02   -3.1764231E-03    4.3499060E+05    1.7228273E-03    4.3531238E+05
   -4.25   900.000    3.118E+02    4.2992366E+05    6.3034624E+02   -2.9385318E-03    4.3028389E+05    1.7057417E-03    4.3043804E+05
   -4.24   900.000    3.107E+02    4.2596253E+05    6.5226982E+02   -2.6892851E-03    4.2637659E+05    1.6925268E-03    4.2637688E+05
   -4.23   900.000    3.095E+02    4.2259896E+05    6.7337629E+02   -2.4281066E-03    4.2306130E+05    1.6842182E-03    4.2292176E+05
   -4.22   900.000    3.083E+02    4.1964866E+05    6.9294469E+02   -2.1550206E-03    4.2015253E+05    1.6815060E-03    4.1988744E+05
   -4.21   900.000    3.069E+02    4.1695235E+05    7.1033512E+02   -1.8706983E-03    4.1748974E+05    1.6847318E-03    4.1711354E+05
   -4.20   900.000    3.054E+02    4.1437779E+05    7.2499749E+02   -1.5764704E-03    4.1493942E+05    1.6938937E-03    4.1446650E+05
   -4.19   900.000    3.039E+02    4.1182071E+05    7.3647357E+02   -1.2743052E-03    4.1239611E+05    1.7086591E-03    4.1184055E+05
   -4.18   900.000    3.022E+02    4.0920490E+05    7.4439370E+02   -9.6675128E-04    4.0978253E+05    1.7283864E-03    4.0915772E+05
   -4.17   900.000    3.004E+02    4.0648127E+05    7.4847039E+02   -6.5684943E-04    4.0704875E+05    1.7521541E-03    4.0636701E+05
   -4.16   900.000    2.985E+02    4.0362628E+05    7.4849032E+02   -3.4801909E-04    4.0417062E+05    1.7788001E-03    4.0344279E+05
   -4.15   900.000    2.965E+02    4.0063972E+05    7.4430590E+02   -4.3927342E-05    4.0114761E+05    1.8069697E-03    4.0038267E+05
   -4.14   900.000    2.944E+02    3.9754208E+05    7.3582717E+02    2.5165172E-04    3.9800021E+05    1.8351729E-03    3.9720495E+05
   -4.13   900.000    2.922E+02    3.9437179E+05    7.2301366E+02    5.3497980E-04    3.9476709E+05    1.8618506E-03    3.9394587E+05
   -4.12   900.000    2.898E+02    3.9118233E+05    7.0586585E+02    8.0249312E-04    3.9150229E+05    1.8854471E-03    3.9065684E+05
   -4.11   900.000    2.873E+02    3.8803949E+05    6.8441529E+02    1.0509322E-03    3.8827230E+05    1.9044855E-03    3.8740172E+05
   -4.10   900.000    2.847E+02    3.8501865E+05    6.5871301E+02    1.2774589E-03    3.8515338E+05    1.9176432E-03    3.8425416E+05
   -4.09   900.000    2.820E+02    3.8220237E+05    6.2881590E+02    1.4797575E-03    3.8222904E+05    1.9238201E-03    3.8129523E+05
   -4.08   900.000    2.792E+02    3.7967798E+05    5.9477129E+02    1.6561168E-03    3.7958761E+05    1.9221968E-03    3.7861107E+05
   -4.07   900.000    2.763E+02    3.7753543E+05    5.5660077E+02    1.8054902E-03    3.7731998E+05    1.9122757E-03    3.7629078E+05
   -4.06   900.000    2.733E+02    3.7586512E+05    5.1428424E+02    1.9275303E-03    3.7551744E+05    1.8939018E-03    3.7442426E+05
   -4.05   900.000    2.702E+02    3.7475586E+05    4.6774603E+02    2.0225964E-03    3.7426962E+05    1.8672598E-03    3.7310027E+05
   -4.04   900.000    2.670E+02    3.7429295E+05    4.1684473E+02    2.0917318E-03    3.7366252E+05    1.8328473E-03    3.7240450E+05
   -4.03   900.000    2.637E+02    3.7455637E+05    3.6136848E+02    2.1366126E-03    3.7377678E+05    1.7914251E-03    3.7241782E+05
   -4.02   900.000    2.604E+02    3.7561924E+05    3.0103723E+02    2.1594697E-03    3.7468613E+05    1.7439479E-03    3.7321477E+05
   -4.01   900.000    2.570E+02    3.7754665E+05    2.3551319E+02    2.1629873E-03    3.7645624E+05    1.6914816E-03    3.7486237E+05
   -4.00   900.000    2.535E+02    3.8039486E+05    1.6441999E+02    2.1501856E-03    3.7914400E+05    1.6351140E-03    3.7741932E+05
   -3.99   900.000    2.499E+02    3.8421111E+05    8.7370433E+01    2.1242931E-03    3.8279731E+05    1.5758678E-03    3.8093577E+05
   -3.98   900.000    2.463E+02    3.8903384E+05    4.0020361E+00    2.0886177E-03    3.8745540E+05    1.5146236E-03    3.8545345E+05
   -3.97   900.000    2.427E+02    3.9489349E+05   -8.5981283E+01    2.0464237E-03    3.9314958E+05    1.4520610E-03    3.9100643E+05
   -3.96   900.000    2.390E+02    4.0181371E+05   -1.8276366E+02    2.0008217E-03    3.9990455E+05    1.3886226E-03    3.9762217E+05
   -3.95   900.000    2.353E+02    4.0981286E+05   -2.8637053E+02    1.9546763E-03    4.0773981E+05    1.3245041E-03    4.0532290E+05
   -3.94   900.000    2.316E+02    4.1890561E+05   -3.9662368E+02    1.9105369E-03    4.1667134E+05    1.2596708E-03    4.1412712E+05
   -3.93   900.000    2.278E+02    4.2910458E+05   -5.1310090E+02    1.8705908E-03    4.2671313E+05    1.1938958E-03    4.2405108E+05
   -3.92   900.000    2.240E+02    4.4042164E+05   -6.3510308E+02    1.8366395E-03    4.3787856E+05    1.1268160E-03    4.3511004E+05
   -3.91   900.000    2.203E+02    4.5286899E+05   -7.6163099E+02    1.8100958E-03    4.5018134E+05    1.0579963E-03    4.4731919E+05
   -3.90   900.000    2.165E+02    4.6645966E+05   -8.9137386E+02    1.7919962E-03    4.6363601E+05    9.8699665E-04    4.6069416E+05
   -3.89   900.000    2.127E+02    4.8120747E+05   -1.0227112E+03    1.7830269E-03    4.7825783E+05    9.1343365E-04    4.7525088E+05
   -3.88   900.000    2.090E+02    4.9712640E+05   -1.1537298E+03    1.7835566E-03    4.9406212E+05    8.3703211E-04    4.9100499E+05
   -3.87   900.000    2.053E+02    5.1422941E+05   -1.2822557E+03    1.7936747E-03    5.1106296E+05    7.5766492E-04    5.0797056E+05
   -3.86   900.000    2.016E+02    5.3252670E+05   -1.4059039E+03    1.8132313E-03    5.2927145E+05    6.7538075E-04    5.2615845E+05
   -3.85   900.000    1.979E+02    5.5202364E+05   -1.5221443E+03    1.8418784E-03    5.4869355E+05    5.9042174E-04    5.4557411E+05
   -3.84   900.000    1.943E+02    5.7271846E+05   -1.6283834E+03    1.8791105E-03    5.6932774E+05    5.0323431E-04    5.6621537E+05
   -3.83   900.000    1.908E+02    5.9459987E+05   -1.7220615E+03    1.9243025E-03    5.9116270E+05    4.1447546E-04    5.8807002E+05
   -3.82   900.000    1.873E+02    6.1764500E+05   -1.8007597E+03    1.9767444E-03    6.1417514E+05    3.2501618E-04    6.1111374E+05
   -3.81   900.000    1.839E+02    6.4181759E+05   -1.8623149E+03    2.0356672E-03    6.3832813E+05    2.3594148E-04    6.3530835E+05
   -3.80   900.000    1.806E+02    6.6706697E+05   -1.9049347E+03    2.1002572E-03    6.6357008E+05    1.4854429E-04    6.6060079E+05
   -3.79   900.000    1.773E+02    6.9332765E+05   -1.9273058E+03    2.1696555E-03    6.8983444E+05    6.4309255E-05    6.8692282E+05
   -3.78   900.000    1.742E+02    7.2051987E+05   -1.9286894E+03    2.2429390E-03    7.1704031E+05   -1.5118258E-05    7.1419160E+05
   -3.77   900.000    1.711E+02    7.4855105E+05   -1.9089958E+03    2.3190827E-03    7.4509395E+05   -8.7982352E-05    7.4231124E+05
   -3.76   900.000    1.682E+02    7.7731797E+05   -1.8688332E+03    2.3969059E-03    7.7389112E+05   -1.5248816E-04    7.7117513E+05
   -3.75   900.000    1.653E+02    8.0670981E+05   -1.8095250E+03    2.4750071E-03    8.0332006E+05   -2.0689456E-04    8.0066904E+05
   -3.74   900.000    1.626E+02    8.3661158E+05   -1.7330953E+03    2.5516950E-03    8.3326508E+05   -2.4962469E-04    8.3067468E+05
   -3.73   900.000    1.600E+02    8.6690796E+05   -1.6422211E+03    2.6249263E-03    8.6361036E+05   -2.7938774E-04    8.6107362E+05
   -3.72   900.000    1.575E+02    8.9748708E+05   -1.5401545E+03    2.6922600E-03    8.9424371E+05   -2.9530358E-04    8.9175114E+05
   -3.71   900.000    1.551E+02    9.2824396E+05   -1.4306174E+03    2.7508391E-03    9.2506008E+05   -2.9702023E-04    9.2259973E+05
   -3.70   900.000    1.528E+02    9.5908333E+05   -1.3176760E+03    2.7974068E-03    9.5596428E+05   -2.8481442E-04    9.5352189E+05
   -3.69   900.000    1.507E+02    9.8992152E+05   -1.2056004E+03    2.8283626E-03    9.8687279E+05   -2.5966603E-04    9.8443203E+05
   -3.68   900.000    1.486E+02    1.0206871E+06   -1.0987177E+03    2.8398578E-03    1.0177144E+06   -2.2329906E-04    1.0152571E+06
   -3.67   900.000    1.466E+02    1.0513203E+06   -1.0012668E+03    2.8279271E-03    1.0484296E+06   -1.7818333E-04    1.0459359E+06
   -3.66   900.000    1.448E+02    1.0817713E+06   -9.1726315E+02    2.7886460E-03    1.0789686E+06   -1.2749333E-04    1.0764175E+06
   -3.65   900.000    1.430E+02    1.1119977E+06   -8.5038241E+02    2.7183060E-03    1.1092887E+06   -7.5022252E-05    1.1066582E+06
   -3.64   900.000    1.413E+02    1.1419611E+06   -8.0387008E+02    2.6135915E-03    1.1393510E+06   -2.5051471E-05    1.1366186E+06
   -3.63   900.000    1.398E+02    1.1716243E+06   -7.8048320E+02    2.4717512E-03    1.1691172E+06    1.7821841E-05    1.1662605E+06
   -3.62   900.000    1.382E+02    1.2009488E+06   -7.8246713E+02    2.2907519E-03    1.1985470E+06    4.8893620E-05    1.1955440E+06
   -3.61   900.000    1.368E+02    1.2298927E+06   -8.1156648E+02    2.0694106E-03    1.2275965E+06    6.3589297E-05    1.2244265E+06
   -3.60   900.000    1.354E+02    1.2584107E+06   -8.6906494E+02    1.8075009E-03    1.2562174E+06    5.7714929E-05    1.2528612E+06
   -3.59   900.000    1.341E+02    1.2864539E+06   -9.5584346E+02    1.5058331E-03    1.2843570E+06    2.7706511E-05    1.2807983E+06
   -3.58   900.000    1.329E+02    1.3139704E+06   -1.0724427E+03    1.1663065E-03    1.3119595E+06   -2.9142068E-05    1.3081847E+06
   -3.57   900.000    1.317E+02    1.3409060E+06   -1.2191129E+03    7.9193221E-04    1.3389662E+06   -1.1449335E-04    1.3349655E+06
   -3.56   900.000    1.306E+02    1.3672042E+06   -1.3958350E+03    3.8682386E-04    1.3653158E+06   -2.2884287E-04    1.3610837E+06
   -3.55   900.000    1.294E+02    1.3928048E+06   -1.6023012E+03   -4.3851055E-05    1.3909436E+06   -3.7147398E-04    1.3864794E+06
   -3.54   900.000    1.284E+02    1.4176425E+06   -1.8378507E+03   -4.9396343E-04    1.4157798E+06   -5.4050029E-04    1.4110882E+06
   -3.53   900.000    1.273E+02    1.4416437E+06   -2.1013663E+03   -9.5656403E-04    1.4397474E+06   -7.3299598E-04    1.4348383E+06
   -3.52   900.000    1.263E+02    1.4647241E+06   -2.3911500E+03   -1.4240751E-03    1.4627592E+06   -9.4520390E-04    1.4576486E+06
   -3.51   900.000    1.253E+02    1.4867865E+06   -2.7048032E+03   -1.8885284E-03    1.4847163E+06   -1.1728017E-03    1.4794261E+06
   -3.50   900.000    1.244E+02    1.5077203E+06   -3.0391450E+03   -2.3418375E-03    1.5055074E+06   -1.4111984E-03    1.5000655E+06
   -3.49   900.000    1.234E+02    1.5274022E+06   -3.3901987E+03   -2.7760900E-03    1.5250105E+06   -1.6558296E-03    1.5194504E+06
   -3.48   900.000    1.225E+02    1.5457003E+06   -3.7532715E+03   -3.1838335E-03    1.5430956E+06   -1.9024194E-03    1.5374562E+06
   -3.47   900.000    1.216E+02    1.5624789E+06   -4.1231348E+03   -3.5583360E-03    1.5596304E+06   -2.1471827E-03    1.5539552E+06
   -3.46   900.000    1.207E+02    1.5776050E+06   -4.4942982E+03   -3.8937945E-03    1.5744866E+06   -2.3869489E-03    1.5688229E+06
   -3.45   900.000    1.198E+02    1.5909565E+06   -4.8613485E+03   -4.1854782E-03    1.5875472E+06   -2.6192007E-03    1.5819449E+06
   -3.44   900.000    1.189E+02    1.6024282E+06   -5.2193128E+03   -4.4297946E-03    1.5987130E+06   -2.8420318E-03    1.5932234E+06
   -3.43   900.000    1.180E+02    1.6119385E+06   -5.5639956E+03   -4.6242819E-03    1.6079084E+06   -3.0540400E-03    1.6025829E+06
   -3.42   900.000    1.171E+02    1.6194336E+06   -5.8922392E+03   -4.7675368E-03    1.6150858E+06   -3.2541787E-03    1.6099742E+06
   -3.41   900.000    1.162E+02    1.6248899E+06   -6.2020687E+03   -4.8590945E-03    1.6202274E+06   -3.4415939E-03    1.6153765E+06
   -3.40   900.000    1.152E+02    1.6283143E+06   -6.4926945E+03   -4.8992848E-03    1.6233454E+06   -3.6154729E-03    1.6187984E+06
   -3.39   900.000    1.143E+02    1.6297432E+06   -6.7643680E+03   -4.8890848E-03    1.6244813E+06   -3.7749272E-03    1.6202759E+06
   -3.38   900.000    1.134E+02    1.6292403E+06   -7.0181062E+03   -4.8299875E-03    1.6237030E+06   -3.9189228E-03    1.6198711E+06
   -3.37   900.000    1.125E+02    1.6268929E+06   -7.2553166E+03   -4.7239008E-03    1.6211014E+06   -4.0462617E-03    1.6176686E+06
   -3.36   900.000    1.116E+02    1.6228093E+06   -7.4773726E+03   -4.5730807E-03    1.6167880E+06   -4.1556105E-03    1.6137732E+06
   -3.35   900.000    1.106E+02    1.6171151E+06   -7.6851953E+03   -4.3800980E-03    1.6108909E+06   -4.2455640E-03    1.6083063E+06
   -3.34   900.000    1.097E+02    1.6099505E+06   -7.8788974E+03   -4.1478301E-03    1.6035522E+06   -4.3147266E-03    1.6014039E+06
   -3.33   900.000    1.087E+02    1.6014677E+06   -8.0575433E+03   -3.8794653E-03    1.5949256E+06   -4.3617963E-03    1.5932137E+06
   -3.32   900.000    1.078E+02    1.5918281E+06   -8.2190598E+03   -3.5785059E-03    1.5851734E+06   -4.3856369E-03    1.5838927E+06
   -3.31   900.000    1.068E+02    1.5811993E+06   -8.3603165E+03   -3.2487594E-03    1.5744635E+06   -4.3853316E-03    1.5736045E+06
   -3.30   900.000    1.058E+02    1.5697519E+06   -8.4773679E+03   -2.8943086E-03    1.5629659E+06   -4.3602161E-03    1.5625156E+06
   -3.29   900.000    1.048E+02    1.5576548E+06   -8.5658279E+03   -2.5194614E-03    1.5508487E+06   -4.3098955E-03    1.5507911E+06
   -3.28   900.000    1.039E+02    1.5450706E+06   -8.6213257E+03   -2.1286823E-03    1.5382726E+06   -4.2342519E-03    1.5385900E+06
   -3.27   900.000    1.029E+02    1.5321499E+06   -8.6399842E+03   -1.7265160E-03    1.5253857E+06   -4.1334526E-03    1.5260594E+06
   -3.26   900.000    1.018E+02    1.5190254E+06   -8.6188561E+03   -1.3175151E-03    1.5123177E+06   -4.0079628E-03    1.5133285E+06
   -3.25   900.000    1.008E+02    1.5058071E+06   -8.5562683E+03   -9.0618042E-04    1.4991750E+06   -3.8585671E-03    1.5005036E+06
   -3.24   900.000    9.980E+01    1.4925779E+06   -8.4520369E+03   -4.9692507E-04    1.4860363E+06   -3.6863976E-03    1.4876640E+06
   -3.23   900.000    9.876E+01    1.4793911E+06   -8.3075415E+03   -9.4060509E-05    1.4729504E+06   -3.4929606E-03    1.4748586E+06
   -3.22   900.000    9.772E+01    1.4662696E+06   -8.1256635E+03    2.9819769E-04    1.4599359E+06   -3.2801555E-03    1.4621064E+06
   -3.21   900.000    9.667E+01    1.4532086E+06   -7.9106138E+03    6.7571593E-04    1.4469834E+06   -3.0502744E-03    1.4493979E+06
   -3.20   900.000    9.560E+01    1.4401794E+06   -7.6676802E+03    1.0344343E-03    1.4340597E+06   -2.8059755E-03    1.4366997E+06
   -3.19   900.000    9.453E+01    1.4271364E+06   -7.4029303E+03    1.3703782E-03    1.4211151E+06   -2.5502248E-03    1.4239614E+06
   -3.18   900.000    9.345E+01    1.4140249E+06   -7.1229004E+03    1.6797005E-03    1.4080909E+06   -2.2862067E-03    1.4111237E+06
   -3.17   900.000    9.235E+01    1.4007905E+06   -6.8342933E+03    1.9587599E-03    1.3949291E+06   -2.0172087E-03    1.3981278E+06
   -3.16   900.000    9.124E+01    1.3873878E+06   -6.5437020E+03    2.2042306E-03    1.3815812E+06   -1.7464903E-03    1.3849248E+06
   -3.15   900.000    9.011E+01    1.3737891E+06   -6.2573675E+03    2.4132339E-03    1.3680163E+06   -1.4771494E-03    1.3714841E+06
   -3.14   900.000    8.897E+01    1.3599905E+06   -5.9809737E+03    2.5834729E-03    1.3542281E+06   -1.2120023E-03    1.3577999E+06
   -3.13   900.000    8.781E+01    1.3460162E+06   -5.7194802E+03    2.7133499E-03    1.3402389E+06   -9.5349009E-04    1.3438960E+06
   -3.12   900.000    8.664E+01    1.3319209E+06   -5.4769906E+03    2.8020468E-03    1.3261013E+06   -7.0362258E-04    1.3298275E+06
   -3.11   900.000    8.544E+01    1.3177885E+06   -5.2566562E+03    2.8495525E-03    1.3118979E+06   -4.6396628E-04    1.3156797E+06
   -3.10   900.000    8.422E+01    1.3037286E+06   -5.0606108E+03    2.8566285E-03    1.2977375E+06   -2.3567526E-04    1.3015647E+06
   -3.09   900.000    8.297E+01    1.2898719E+06   -4.8899386E+03    2.8247137E-03    1.2837504E+06   -1.9560110E-05    1.2876159E+06
   -3.08   900.000    8.170E+01    1.2763630E+06   -4.7446748E+03    2.7557779E-03    1.2700811E+06    1.8381502E-04    1.2739812E+06
   -3.07   900.000    8.040E+01    1.2633530E+06   -4.6238392E+03    2.6521409E-03    1.2568817E+06    3.7401958E-04    1.2608149E+06
   -3.06   900.000    7.906E+01    1.2509928E+06   -4.5255074E+03    2.5162784E-03    1.2443040E+06    5.5064082E-04    1.2482705E+06
   -3.05   900.000    7.770E+01    1.2394256E+06   -4.4469190E+03    2.3506384E-03    1.2324935E+06    7.1317671E-04    1.2364940E+06
   -3.04   900.000    7.630E+01    1.2287822E+06   -4.3846257E+03    2.1574883E-03    1.2215838E+06    8.6094719E-04    1.2256181E+06
   -3.03   900.000    7.487E+01    1.2191765E+06   -4.3346755E+03    1.9388084E-03    1.2116928E+06    9.9303074E-04    1.2157586E+06
   -3.02   900.000    7.339E+01    1.2107040E+06   -4.2928269E+03    1.6962416E-03    1.2029203E+06    1.1082306E-03    1.2070117E+06
   -3.01   900.000    7.188E+01    1.2034400E+06   -4.2547834E+03    1.4311004E-03    1.1953474E+06    1.2050732E-03    1.1994540E+06
   -3.00   900.000    7.034E+01    1.1974409E+06   -4.2164317E+03    1.1444270E-03    1.1890367E+06    1.2818385E-03    1.1931424E+06
   -2.99   900.000    6.875E+01    1.1927451E+06   -4.1740661E+03    8.3709575E-04    1.1840336E+06    1.3366213E-03    1.1881159E+06
   -2.98   900.000    6.712E+01    1.1893744E+06   -4.1245798E+03    5.0994428E-04    1.1803672E+06    1.3674192E-03    1.1843969E+06
   -2.97   900.000    6.546E+01    1.1873357E+06   -4.0656058E+03    1.6391835E-04    1.1780518E+06    1.3722412E-03    1.1819930E+06
   -2.96   900.000    6.375E+01    1.1866217E+06   -3.9955943E+03   -1.9978503E-04    1.1770872E+06    1.3492286E-03    1.1808978E+06
   -2.95   900.000    6.201E+01    1.1872111E+06   -3.9138215E+03   -5.7958924E-04    1.1774588E+06    1.2967771E-03    1.1810913E+06
   -2.94   900.000    6.024E+01    1.1890683E+06   -3.8203305E+03   -9.7343501E-04    1.1791366E+06    1.2136488E-03    1.1825390E+06
   -2.93   900.000    5.844E+01    1.1921418E+06   -3.7158130E+03   -1.3787098E-03    1.1820736E+06    1.0990637E-03    1.1851910E+06
   -2.92   900.000    5.661E+01    1.1963627E+06   -3.6014492E+03   -1.7922134E-03    1.1862038E+06    9.5276004E-04    1.1889802E+06
   -2.91   900.000    5.475E+01    1.2016428E+06   -3.4787232E+03   -2.2101609E-03    1.1914404E+06    7.7502167E-04    1.1938202E+06
   -2.90   900.000    5.288E+01    1.2078728E+06   -3.3492369E+03   -2.6282208E-03    1.1976740E+06    5.6667068E-04    1.1996042E+06
   -2.89   900.000    5.100E+01    1.2149213E+06   -3.2145416E+03   -3.0415850E-03    1.2047716E+06    3.2903213E-04    1.2062038E+06
   -2.88   900.000    4.911E+01    1.2226347E+06   -3.0760045E+03   -3.4450676E-03    1.2125769E+06    6.3880411E-05    1.2134686E+06
   -2.87   900.000    4.722E+01    1.2308383E+06   -2.9347239E+03   -3.8332257E-03    1.2209112E+06   -2.2662025E-04    1.2212280E+06
   -2.86   900.000    4.533E+01    1.2393380E+06   -2.7914967E+03   -4.2005008E-03    1.2295760E+06   -5.3996882E-04    1.2292932E+06
   -2.85   900.000    4.345E+01    1.2479243E+06   -2.6468405E+03   -4.5413736E-03    1.2383573E+06   -8.7336414E-04    1.2374605E+06
   -2.84   900.000    4.160E+01    1.2563766E+06   -2.5010622E+03   -4.8505321E-03    1.2470297E+06   -1.2237203E-03    1.2455163E+06
   -2.83   900.000    3.977E+01    1.2644685E+06   -2.3543635E+03   -5.1230452E-03    1.2553625E+06   -1.5876613E-03    1.2532421E+06
   -2.82   900.000    3.797E+01    1.2719734E+06   -2.2069666E+03   -5.3545395E-03    1.2631254E+06   -1.9615028E-03    1.2604198E+06
   -2.81   900.000    3.620E+01    1.2786706E+06   -2.0592442E+03   -5.5413716E-03    1.2700942E+06   -2.3412329E-03    1.2668378E+06
   -2.80   900.000    3.448E+01    1.2843505E+06   -1.9118355E+03   -5.6807874E-03    1.2760568E+06   -2.7225083E-03    1.2722955E+06
   -2.79   900.000    3.280E+01    1.2888193E+06   -1.7657331E+03   -5.7710593E-03    1.2808171E+06   -3.1006822E-03    1.2766079E+06
   -2.78   900.000    3.117E+01    1.2919030E+06   -1.6223281E+03   -5.8115896E-03    1.2841995E+06   -3.4708774E-03    1.2796087E+06
   -2.77   900.000    2.960E+01    1.2934504E+06   -1.4834032E+03   -5.8029710E-03    1.2860509E+06   -3.8281118E-03    1.2811529E+06
   -2.76   900.000    2.808E+01    1.2933341E+06   -1.3510725E+03   -5.7469952E-03    1.2862426E+06   -4.1674759E-03    1.2811180E+06
   -2.75   900.000    2.662E+01    1.2914522E+06   -1.2276709E+03   -5.6466038E-03    1.2846709E+06   -4.4843518E-03    1.2794045E+06
   -2.74   900.000    2.522E+01    1.2877279E+06   -1.1156005E+03   -5.5057828E-03    1.2812572E+06   -4.7746535E-03    1.2759354E+06
   -2.73   900.000    2.388E+01    1.2821088E+06   -1.0171504E+03   -5.3294021E-03    1.2759467E+06   -5.0350639E-03    1.2706558E+06
   -2.72   900.000    2.260E+01    1.2745662E+06   -9.3430823E+02   -5.1230103E-03    1.2687083E+06   -5.2632354E-03    1.2635320E+06
   -2.71   900.000    2.137E+01    1.2650938E+06   -8.6858357E+02   -4.8925959E-03    1.2595328E+06   -5.4579287E-03    1.2545501E+06
   -2.70   900.000    2.021E+01    1.2537063E+06   -8.2086343E+02   -4.6443314E-03    1.2484317E+06   -5.6190643E-03    1.2437155E+06
   -2.69   900.000    1.910E+01    1.2404382E+06   -7.9131515E+02   -4.3843152E-03    1.2354362E+06   -5.7476746E-03    1.2310515E+06
   -2.68   900.000    1.805E+01    1.2253420E+06   -7.7934710E+02   -4.1183294E-03    1.2205956E+06   -5.8457548E-03    1.2165982E+06
   -2.67   900.000    1.705E+01    1.2084863E+06   -7.8362992E+02   -3.8516277E-03    1.2039755E+06   -5.9160275E-03    1.2004115E+06
   -2.66   900.000    1.610E+01    1.1899539E+06   -8.0217420E+02   -3.5887688E-03    1.1856559E+06   -5.9616417E-03    1.1825610E+06
   -2.65   900.000    1.520E+01    1.1698389E+06   -8.3245473E+02   -3.3335044E-03    1.1657289E+06   -5.9858444E-03    1.1631284E+06
   -2.64   900.000    1.435E+01    1.1482437E+06   -8.7156761E+02   -3.0887273E-03    1.1442954E+06   -5.9916602E-03    1.1422045E+06
   -2.63   900.000    1.354E+01    1.1252757E+06   -9.1640448E+02   -2.8564831E-03    1.1214618E+06   -5.9816174E-03    1.1198864E+06
   -2.62   900.000    1.278E+01    1.1010436E+06   -9.6382851E+02   -2.6380385E-03    1.0973370E+06   -5.9575540E-03    1.0962743E+06
   -2.61   900.000    1.206E+01    1.0756545E+06   -1.0108380E+03   -2.4339983E-03    1.0720287E+06   -5.9205241E-03    1.0714682E+06
   -2.60   900.000    1.138E+01    1.0492104E+06   -1.0547060E+03   -2.2444565E-03    1.0456403E+06   -5.8708150E-03    1.0455652E+06
   -2.59   900.000    1.073E+01    1.0218067E+06   -1.0930865E+03   -2.0691636E-03    1.0182691E+06   -5.8080685E-03    1.0186573E+06
   -2.58   900.000    1.012E+01    9.9353053E+05   -1.1240828E+03   -1.9076900E-03    9.9000494E+05   -5.7314880E-03    9.9083033E+05
   -2.57   900.000    9.543E+00    9.6446095E+05   -1.1462757E+03   -1.7595679E-03    9.6092987E+05   -5.6401014E-03    9.6216310E+05
   -2.56   900.000    8.995E+00    9.3466968E+05   -1.1587144E+03   -1.6243948E-03    9.3111894E+05   -5.5330427E-03    9.3272846E+05
   -2.55   900.000    8.477E+00    9.0422288E+05   -1.1608758E+03   -1.5018880E-03    9.0064185E+05   -5.4098135E-03    9.0259455E+05
   -2.54   900.000    7.987E+00    8.7318337E+05   -1.1526038E+03   -1.3918869E-03    8.6956513E+05   -5.2704908E-03    8.7182688E+05
   -2.53   900.000    7.523E+00    8.4161331E+05   -1.1340382E+03   -1.2943064E-03    8.3795467E+05   -5.1158554E-03    8.4049063E+05
   -2.52   900.000    7.084E+00    8.0957675E+05   -1.1055466E+03   -1.2090548E-03    8.0587821E+05   -4.9474250E-03    8.0865311E+05
   -2.51   900.000    6.669E+00    7.7714206E+05   -1.0676674E+03   -1.1359321E-03    7.7340768E+05   -4.7673941E-03    7.7638599E+05
   -2.50   900.000    6.276E+00    7.4438382E+05   -1.0210717E+03   -1.0745302E-03    7.4062098E+05   -4.5784905E-03    7.4376709E+05
   -2.49   900.000    5.904E+00    7.1138418E+05   -9.6654286E+02   -1.0241546E-03    7.0760326E+05   -4.3837720E-03    7.1088167E+05
   -2.48   900.000    5.553E+00    6.7823357E+05   -9.0497311E+02   -9.8378286E-04    6.7444755E+05   -4.1863914E-03    6.7782307E+05
   -2.47   900.000    5.221E+00    6.4503070E+05   -8.3736735E+02   -9.5206794E-04    6.4125460E+05   -3.9893602E-03    6.4469275E+05
   -2.46   900.000    4.908E+00    6.1188192E+05   -7.6484809E+02   -9.2738721E-04    6.0813231E+05   -3.7953389E-03    6.1159962E+05
   -2.45   900.000    4.612E+00    5.7890009E+05   -6.8865254E+02   -9.0792918E-04    5.7519443E+05   -3.6064770E-03    5.7865891E+05
   -2.44   900.000    4.333E+00    5.4620295E+05   -6.1011671E+02   -8.9180559E-04    5.4255901E+05   -3.4243159E-03    5.4599060E+05
   -2.43   900.000    4.071E+00    5.1391117E+05   -5.3064431E+02   -8.7717297E-04    5.1034643E+05   -3.2497597E-03    5.1371745E+05
   -2.42   900.000    3.824E+00    4.8214624E+05   -4.5166191E+02   -8.6234837E-04    4.7867735E+05   -3.0831095E-03    4.8196290E+05
   -2.41   900.000    3.593E+00    4.5102823E+05   -3.7456456E+02   -8.4590613E-04    4.4767058E+05   -2.9241513E-03    4.5084886E+05
   -2.40   900.000    3.376E+00    4.2067358E+05   -3.0065788E+02   -8.2674688E-04    4.1744090E+05   -2.7722795E-03    4.2049345E+05
   -2.39   900.000    3.173E+00    3.9119295E+05   -2.3110308E+02   -8.0413412E-04    3.8809704E+05   -2.6266395E-03    3.9100889E+05
   -2.38   900.000    2.983E+00    3.6268921E+05   -1.6687083E+02   -7.7769851E-04    3.5973976E+05   -2.4862703E-03    3.6249941E+05
   -2.37   900.000    2.806E+00    3.3525556E+05   -1.0870807E+02   -7.4741323E-04    3.3246005E+05   -2.3502328E-03    3.3505939E+05
   -2.36   900.000    2.642E+00    3.0897392E+05   -5.7120365E+01   -7.1354652E-04    3.0633760E+05   -2.2177128E-03    3.0877172E+05
   -2.35   900.000    2.490E+00    2.8391354E+05   -1.2370023E+01   -6.7659888E-04    2.8143947E+05   -2.0880914E-03    2.8370640E+05
   -2.34   900.000    2.349E+00    2.6012994E+05    2.5511245E+01   -6.3723290E-04    2.5781912E+05   -1.9609825E-03    2.5991948E+05
   -2.33   900.000    2.218E+00    2.3766417E+05    5.6697787E+01   -5.9620293E-04    2.3551567E+05   -1.8362393E-03    2.3745235E+05
   -2.32   900.000    2.099E+00    2.1654249E+05    8.1536913E+01   -5.5429084E-04    2.1455365E+05   -1.7139354E-03    2.1633141E+05
   -2.31   900.000    1.989E+00    1.9677646E+05    1.0051084E+02   -5.1225205E-04    1.9494314E+05   -1.5943259E-03    1.9656822E+05
   -2.30   900.000    1.888E+00    1.7836343E+05    1.1419710E+02   -4.7077443E-04    1.7668018E+05   -1.4777993E-03    1.7816000E+05
   -2.29   900.000    1.797E+00    1.6128739E+05    1.2323039E+02   -4.3045072E-04    1.5974773E+05   -1.3648236E-03    1.6109051E+05
   -2.28   900.000    1.713E+00    1.4552018E+05    1.2826803E+02   -3.9176360E-04    1.4411686E+05   -1.2558956E-03    1.4533134E+05
   -2.27   900.000    1.637E+00    1.3102302E+05    1.2996068E+02   -3.5508173E-04    1.2974819E+05   -1.1514955E-03    1.3084338E+05
   -2.26   900.000    1.568E+00    1.1774808E+05    1.2892899E+02   -3.2066416E-04    1.1659356E+05   -1.0520511E-03    1.1757851E+05
   -2.25   900.000    1.506E+00    1.0564035E+05    1.2574653E+02   -2.8867069E-04    1.0459776E+05   -9.5791230E-04    1.0548141E+05
   -2.24   900.000    1.450E+00    9.4639351E+04    1.2092849E+02   -2.5917578E-04    9.3700315E+04   -8.6933538E-04    9.4491334E+04
   -2.23   900.000    1.400E+00    8.4680901E+04    1.1492568E+02   -2.3218383E-04    8.3837165E+04   -7.8647662E-04    8.4543864E+04
   -2.22   900.000    1.355E+00    7.5698738E+04    1.0812275E+02   -2.0764461E-04    7.4942287E+04   -7.0939345E-04    7.5572534E+04
   -2.21   900.000    1.314E+00    6.7625972E+04    1.0083991E+02   -1.8546746E-04    6.6949116E+04   -6.3805129E-04    6.7510294E+04
   -2.20   900.000    1.277E+00    6.0396366E+04    9.3336976E+01   -1.6553391E-04    5.9791802E+04   -5.7233417E-04    6.0290780E+04
   -2.19   900.000    1.245E+00    5.3945410E+04    8.5819049E+01   -1.4770821E-04    5.3406264E+04   -5.1205762E-04    5.3849388E+04
   -2.18   900.000    1.216E+00    4.8211194E+04    7.8443039E+01   -1.3184600E-04    4.7731050E+04   -4.5698234E-04    4.8124147E+04
   -2.17   900.000    1.190E+00    4.3135096E+04    7.1324488E+01   -1.1780094E-04    4.2708001E+04   -4.0682762E-04    4.3056396E+04
   -2.16   900.000    1.166E+00    3.8662287E+04    6.4544249E+01   -1.0542984E-04    3.8282756E+04   -3.6128379E-04    3.8591287E+04
   -2.15   900.000    1.146E+00    3.4742092E+04    5.8154748E+01   -9.4596331E-05    3.4405098E+04   -3.2002326E-04    3.4678148E+04
   -2.14   900.000    1.127E+00    3.1328225E+04    5.2185640E+01   -8.5173449E-05    3.1029176E+04   -2.8270987E-04    3.1270700E+04
   -2.13   900.000    1.110E+00    2.8378905E+04    4.6648770E+01   -7.7045344E-05    2.8113628E+04   -2.4900648E-04    2.8327187E+04
   -2.12   900.000    1.095E+00    2.5856912E+04    4.1542430E+01   -7.0108370E-05    2.5621624E+04   -2.1858098E-04    2.5810413E+04
   -2.11   900.000    1.081E+00    2.3729566E+04    3.6854929E+01   -6.4271709E-05    2.3520850E+04   -1.9111070E-04    2.3687731E+04
   -2.10   900.000    1.069E+00    2.1968676E+04    3.2567536E+01   -5.9457707E-05    2.1783449E+04   -1.6628552E-04    2.1930982E+04
   -2.09   900.000    1.058E+00    2.0550457E+04    2.8656863E+01   -5.5602029E-05    2.0385945E+04   -1.4380983E-04    2.0516417E+04
   -2.08   900.000    1.047E+00    1.9455445E+04    2.5096781E+01   -5.2653759E-05    1.9309150E+04   -1.2340355E-04    1.9424603E+04
   -2.07   900.000    1.038E+00    1.8668399E+04    2.1859938E+01   -5.0575503E-05    1.8538078E+04   -1.0480238E-04    1.8640333E+04
   -2.06   900.000    1.029E+00    1.8178223E+04    1.8918966E+01   -4.9343572E-05    1.8061859E+04   -8.7757523E-05    1.8152541E+04
   -2.05   900.000    1.020E+00    1.7977896E+04    1.6247445E+01   -4.8948314E-05    1.7873674E+04   -7.2034892E-05    1.7954235E+04
   -2.04   900.000    1.012E+00    1.8064421E+04    1.3820697E+01   -4.9394620E-05    1.7970707E+04   -5.7414058E-05    1.8042445E+04
   -2.03   900.000    1.004E+00    1.8438802E+04    1.1616462E+01   -5.0702665E-05    1.8354119E+04   -4.3686975E-05    1.8418196E+04
   -2.02   900.000    9.962E-01    1.9106030E+04    9.6155151E+00   -5.2908932E-05    1.9029041E+04   -3.0656599E-05    1.9086504E+04
   -2.01   900.000    9.883E-01    2.0075104E+04    7.8022757E+00   -5.6067546E-05    2.0004593E+04   -1.8135466E-05    2.0056386E+04
   -2.00   900.000    9.802E-01    2.1359059E+04    6.1654408E+00   -6.0251964E-05    2.1293916E+04   -5.9443122E-06    2.1340896E+04
   -1.99   900.000    9.718E-01    2.2975020E+04    4.6986900E+00   -6.5557077E-05    2.2914223E+04    6.0892139E-06    2.2957176E+04
   -1.98   900.000    9.630E-01    2.4944253E+04    3.4014851E+00   -7.2101738E-05    2.4886859E+04    1.8131666E-05    2.4926508E+04
   -1.97   900.000    9.536E-01    2.7292226E+04    2.2799909E+00   -8.0031764E-05    2.7237353E+04    3.0344692E-05    2.7274376E+04
   -1.96   900.000    9.436E-01    3.0048656E+04    1.3481264E+00   -8.9523435E-05    2.9995475E+04    4.2885616E-05    3.0030513E+04
   -1.95   900.000    9.329E-01    3.3247539E+04    6.2874666E-01   -1.0078750E-04    3.3195264E+04    5.5907635E-05    3.3228935E+04
   -1.94   900.000    9.211E-01    3.6927147E+04    1.5493411E-01   -1.1407365E-04    3.6875023E+04    6.9559516E-05    3.6907930E+04
   -1.93   900.000    9.083E-01    4.1129975E+04   -2.8642579E-02   -1.2967553E-04    4.1077269E+04    8.3984690E-05    4.1110014E+04
   -1.92   900.000    8.942E-01    4.5902625E+04    1.3562397E-01   -1.4793601E-04    4.5848618E+04    9.9319566E-05    4.5881816E+04
   -1.91   900.000    8.788E-01    5.1295614E+04    7.1951908E-01   -1.6925291E-04    5.1239593E+04    1.1569091E-04    5.1273879E+04
   -1.90   900.000    8.617E-01    5.7363080E+04    1.8099855E+00   -1.9408474E-04    5.7304327E+04    1.3321208E-04    5.7340370E+04
   -1.89   900.000    8.429E-01    6.4162383E+04    3.5096558E+00   -2.2295659E-04    6.4100164E+04    1.5197778E-04    6.4138683E+04
   -1.88   900.000    8.222E-01    7.1753579E+04    5.9367142E+00   -2.5646580E-04    7.1687134E+04    1.7205720E-04    7.1728909E+04
   -1.87   900.000    7.993E-01    8.0198767E+04    9.2238346E+00   -2.9528738E-04    8.0127299E+04    1.9348507E-04    8.0173185E+04
   -1.86   900.000    7.742E-01    8.9561306E+04    1.3515933E+01   -3.4017923E-04    8.9483963E+04    2.1625042E-04    8.9534909E+04
   -1.85   900.000    7.465E-01    9.9904908E+04    1.8966482E+01   -3.9198689E-04    9.9820766E+04    2.4028262E-04    9.9877828E+04
   -1.84   900.000    7.162E-01    1.1129262E+05    2.5732192E+01   -4.5164840E-04    1.1120066E+05    2.6543464E-04    1.1126502E+05
   -1.83   900.000    6.830E-01    1.2378570E+05    3.3965932E+01   -5.2019920E-04    1.2368481E+05    2.9146324E-04    1.2375781E+05
   -1.82   900.000    6.467E-01    1.3744250E+05    4.3807913E+01   -5.9877759E-04    1.3733141E+05    3.1800632E-04    1.3741455E+05
   -1.81   900.000    6.072E-01    1.5231724E+05    5.5375312E+01   -6.8863094E-04    1.5219452E+05    3.4455774E-04    1.5228952E+05
   -1.80   900.000    5.643E-01    1.6845888E+05    6.8750709E+01   -7.9112257E-04    1.6832294E+05    3.7044058E-04    1.6843173E+05
   -1.79   900.000    5.179E-01    1.8591006E+05    8.3969950E+01   -9.0773865E-04    1.8575909E+05    3.9478019E-04    1.8588389E+05
   -1.78   900.000    4.678E-01    2.0470607E+05    1.0101025E+02   -1.0400933E-03    2.0453805E+05    4.1647917E-04    2.0468142E+05
   -1.77   900.000    4.139E-01    2.2487410E+05    1.1977955E+02   -1.1899291E-03    2.2468680E+05    4.3419758E-04    2.2485167E+05
   -1.76   900.000    3.561E-01    2.4643259E+05    1.4010820E+02   -1.3591080E-03    2.4622353E+05    4.4634241E-04    2.4641328E+05
   -1.75   900.000    2.943E-01    2.6939071E+05    1.6174423E+02   -1.5495868E-03    2.6915722E+05    4.5107173E-04    2.6937574E+05
   -1.74   900.000    2.284E-01    2.9374812E+05    1.8435304E+02   -1.7633700E-03    2.9348733E+05    4.4631965E-04    2.9373914E+05
   -1.73   900.000    1.584E-01    3.1949482E+05    2.0752239E+02   -2.0024327E-03    3.1920369E+05    4.2984875E-04    3.1949398E+05
   -1.72   900.000    8.430E-02    3.4661111E+05    2.3077287E+02   -2.2686061E-03    3.4628650E+05    3.9933585E-04    3.4662117E+05
   -1.71   900.000    6.000E-03    3.7506765E+05    2.5357358E+02   -2.5634243E-03    3.7470631E+05    3.5249519E-04    3.7509209E+05
   -1.70   900.000   -7.648E-02    4.0482558E+05    2.7536219E+02   -2.8879318E-03    4.0442423E+05    2.8723939E-04    4.0486866E+05
   -1.69   900.000   -1.631E-01    4.3583664E+05    2.9556785E+02   -3.2424596E-03    4.3539200E+05    2.0187329E-04    4.3590343E+05
   -1.68   900.000   -2.540E-01    4.6804341E+05    3.1363520E+02   -3.6263862E-03    4.6755220E+05    9.5309890E-05    4.6813974E+05
   -1.67   900.000   -3.489E-01    5.0137957E+05    3.2904738E+02   -4.0379031E-03    5.0083855E+05   -3.2709278E-05    5.0151201E+05
   -1.66   900.000   -4.479E-01    5.3577040E+05    3.4134629E+02   -4.4738133E-03    5.3517632E+05   -1.8141173E-04    5.3594604E+05
   -1.65   900.000   -5.511E-01    5.7113339E+05    3.5014832E+02   -4.9293930E-03    5.7048298E+05   -3.4883538E-04    5.7135966E+05
   -1.64   900.000   -6.582E-01    6.0737922E+05    3.5515496E+02   -5.3983430E-03    6.0666906E+05   -5.3173861E-04    6.0766358E+05
   -1.63   900.000   -7.693E-01    6.4441286E+05    3.5615784E+02   -5.8728542E-03    6.4363930E+05   -7.2559986E-04    6.4476244E+05
   -1.62   900.000   -8.843E-01    6.8213490E+05    3.5303909E+02   -6.3437999E-03    6.8129392E+05   -9.2471900E-04    6.8255609E+05
   -1.61   900.000   -1.003E+00    7.2044297E+05    3.4576849E+02   -6.8010515E-03    7.1952999E+05   -1.1224218E-03    7.2094099E+05
   -1.60   900.000   -1.126E+00    7.5923295E+05    3.3439917E+02   -7.2339043E-03    7.5824267E+05   -1.3113552E-03    7.5981136E+05
   -1.59   900.000   -1.252E+00    7.9839990E+05    3.1906420E+02   -7.6315790E-03    7.9732616E+05   -1.4838495E-03    7.9906018E+05
   -1.58   900.000   -1.382E+00    8.3783851E+05    2.9997574E+02   -7.9837550E-03    8.3667413E+05   -1.6323108E-03    8.3857962E+05
   -1.57   900.000   -1.516E+00    8.7744286E+05    2.7742780E+02   -8.2810800E-03    8.7617956E+05   -1.7496012E-03    8.7826091E+05
   -1.56   900.000   -1.653E+00    9.1710558E+05    2.5180224E+02   -8.5155987E-03    9.1573399E+05   -1.8293613E-03    9.1799353E+05
   -1.55   900.000   -1.794E+00    9.5671653E+05    2.2357656E+02   -8.6810457E-03    9.5522617E+05   -1.8662348E-03    9.5766400E+05
   -1.54   900.000   -1.938E+00    9.9616116E+05    1.9333043E+02   -8.7729610E-03    9.9454051E+05   -1.8559627E-03    9.9715429E+05
   -1.53   900.000   -2.086E+00    1.0353190E+06    1.6174769E+02   -8.7886036E-03    1.0335556E+06   -1.7953337E-03    1.0363404E+06
   -1.52   900.000   -2.237E+00    1.0740628E+06    1.2961031E+02   -8.7266615E-03    1.0721435E+06   -1.6819960E-03    1.0750915E+06
   -1.51   900.000   -2.391E+00    1.1122586E+06    9.7782138E+01   -8.5867871E-03    1.1101693E+06   -1.5141590E-03    1.1132701E+06
   -1.50   900.000   -2.549E+00    1.1497672E+06    6.7182271E+01   -8.3690097E-03    1.1474930E+06   -1.2902306E-03    1.1507334E+06
   -1.49   900.000   -2.709E+00    1.1864469E+06    3.8750018E+01   -8.0731024E-03    1.1839723E+06   -1.0084579E-03    1.1873361E+06
   -1.48   900.000   -2.874E+00    1.2221588E+06    1.3405971E+01   -7.6979973E-03    1.2194673E+06   -6.6663629E-04    1.2229358E+06
   -1.47   900.000   -3.041E+00    1.2567723E+06   -7.9849024E+00   -7.2413433E-03    1.2538464E+06   -2.6195840E-04    1.2573981E+06
   -1.46   900.000   -3.211E+00    1.2901726E+06   -2.4641715E+01   -6.6992945E-03    1.2869933E+06    2.0895002E-04    1.2906045E+06
   -1.45   900.000   -3.384E+00    1.3222675E+06   -3.5882253E+01   -6.0665888E-03    1.3188143E+06    7.4977948E-04    1.3224590E+06
   -1.44   900.000   -3.561E+00    1.3529951E+06   -4.1120496E+01   -5.3369400E-03    1.3492459E+06    1.3640795E-03    1.3528960E+06
   -1.43   900.000   -3.740E+00    1.3823297E+06   -3.9846917E+01   -4.5037209E-03    1.3782605E+06    2.0546357E-03    1.3818859E+06
   -1.42   900.000   -3.923E+00    1.4102864E+06   -3.1594646E+01   -3.5608682E-03    1.4058714E+06    2.8227520E-03    1.4094403E+06
   -1.41   900.000   -4.108E+00    1.4369237E+06   -1.5897227E+01   -2.5039018E-03    1.4321355E+06    3.6675321E-03    1.4356142E+06
   -1.40   900.000   -4.296E+00    1.4623443E+06    7.7547108E+00   -1.3309293E-03    1.4571540E+06    4.5852582E-03    1.4605070E+06
   -1.39   900.000   -4.488E+00    1.4866930E+06    3.9950375E+01   -4.3499099E-05    1.4810710E+06    5.5689597E-03    1.4842608E+06
   -1.38   900.000   -4.682E+00    1.5101537E+06    8.1383000E+01    1.3528132E-03    1.5040699E+06    6.6082429E-03    1.5070570E+06
   -1.37   900.000   -4.878E+00    1.5329441E+06    1.3285713E+02    2.8481685E-03    1.5263685E+06    7.6894161E-03    1.5291116E+06
   -1.36   900.000   -5.078E+00    1.5553095E+06    1.9527754E+02    4.4286139E-03    1.5482131E+06    8.7959100E-03    1.5506689E+06
   -1.35   900.000   -5.281E+00    1.5775162E+06    2.6962084E+02    6.0766044E-03    1.5698714E+06    9.9089505E-03    1.5719951E+06
   -1.34   900.000   -5.486E+00    1.5998446E+06    3.5689332E+02    7.7718341E-03    1.5916258E+06    1.1008412E-02    1.5933711E+06
   -1.33   900.000   -5.694E+00    1.6225819E+06    4.5807972E+02    9.4922832E-03    1.6137663E+06    1.2073755E-02    1.6150862E+06
   -1.32   900.000   -5.906E+00    1.6460163E+06    5.7408863E+02    1.1215366E-02    1.6365838E+06    1.3084954E-02    1.6374309E+06
   -1.31   900.000   -6.120E+00    1.6704305E+06    7.0569989E+02    1.2919062E-02    1.6603643E+06    1.4023314E-02    1.6606912E+06
   -1.30   900.000   -6.336E+00    1.6960962E+06    8.5351844E+02    1.4582943E-02    1.6853830E+06    1.4872131E-02    1.6851429E+06
   -1.29   900.000   -6.556E+00    1.7232691E+06    1.0179378E+03    1.6188999E-02    1.7118990E+06    1.5617132E-02    1.7110464E+06
   -1.28   900.000   -6.778E+00    1.7521834E+06    1.1991143E+03    1.7722262E-02    1.7401499E+06    1.6246715E-02    1.7386412E+06
   -1.27   900.000   -7.003E+00    1.7830474E+06    1.3969509E+03    1.9171185E-02    1.7703471E+06    1.6752012E-02    1.7681414E+06
   -1.26   900.000   -7.231E+00    1.8160381E+06    1.6110891E+03    2.0527826E-02    1.8026709E+06    1.7126806E-02    1.7997309E+06
   -1.25   900.000   -7.462E+00    1.8512962E+06    1.8409036E+03    2.1787855E-02    1.8372653E+06    1.7367377E-02    1.8335587E+06
   -1.24   900.000   -7.695E+00    1.8889214E+06    2.0854977E+03    2.2950429E-02    1.8742337E+06    1.7472300E-02    1.8697347E+06
   -1.23   900.000   -7.931E+00    1.9289676E+06    2.3436952E+03    2.4017957E-02    1.9136335E+06    1.7442251E-02    1.9083255E+06
   -1.22   900.000   -8.170E+00    1.9714383E+06    2.6140283E+03    2.4995781E-02    1.9554730E+06    1.7279824E-02    1.9493506E+06
   -1.21   900.000   -8.411E+00    2.0162831E+06    2.8947233E+03    2.5891753E-02    1.9997072E+06    1.6989357E-02    1.9927796E+06
   -1.20   900.000   -8.655E+00    2.0633954E+06    3.1836883E+03    2.6715722E-02    2.0462358E+06    1.6576762E-02    2.0385301E+06
   -1.19   900.000   -8.902E+00    2.1126111E+06    3.4785113E+03    2.7478894E-02    2.0949024E+06    1.6049342E-02    2.0864669E+06
   -1.18   900.000   -9.151E+00    2.1637096E+06    3.7764767E+03    2.8193072E-02    2.1454950E+06    1.5415572E-02    2.1364023E+06
   -1.17   900.000   -9.403E+00    2.2164172E+06    4.0746102E+03    2.8869792E-02    2.1977493E+06    1.4684848E-02    2.1880985E+06
   -1.16   900.000   -9.658E+00    2.2704129E+06    4.3697573E+03    2.9519383E-02    2.2513542E+06    1.3867193E-02    2.2412725E+06
   -1.15   900.000   -9.916E+00    2.3253370E+06    4.6586989E+03    3.0150024E-02    2.3059600E+06    1.2972933E-02    2.2956026E+06
   -1.14   900.000   -1.018E+01    2.3808030E+06    4.9382989E+03    3.0766858E-02    2.3611893E+06    1.2012363E-02    2.3507377E+06
   -1.13   900.000   -1.044E+01    2.4364118E+06    5.2056746E+03    3.1371294E-02    2.4166506E+06    1.0995406E-02    2.4063091E+06
   -1.12   900.000   -1.071E+01    2.4917674E+06    5.4583753E+03    3.1960550E-02    2.4719534E+06    9.9313074E-03    2.4619440E+06
   -1.11   900.000   -1.098E+01    2.5464946E+06    5.6945522E+03    3.2527559E-02    2.5267251E+06    8.8283709E-03    2.5172808E+06
   -1.10   900.000   -1.125E+01    2.6002559E+06    5.9131031E+03    3.3061266E-02    2.5806276E+06    7.6937653E-03    2.5719844E+06
   -1.09   900.000   -1.152E+01    2.6527675E+06    6.1137786E+03    3.3547341E-02    2.6333726E+06    6.5334261E-03    2.6257611E+06
   -1.08   900.000   -1.180E+01    2.7038120E+06    6.2972431E+03    3.3969276E-02    2.6847353E+06    5.3520601E-03    2.6783724E+06
   -1.07   900.000   -1.208E+01    2.7532479E+06    6.4650848E+03    3.4309778E-02    2.7345630E+06    4.1532591E-03    2.7296445E+06
   -1.06   900.000   -1.237E+01    2.8010134E+06    6.6197789E+03    3.4552320E-02    2.7827807E+06    2.9397139E-03    2.7794748E+06
   -1.05   900.000   -1.265E+01    2.8471255E+06    6.7646034E+03    3.4682706E-02    2.8293902E+06    1.7135028E-03    2.8278334E+06
   -1.04   900.000   -1.294E+01    2.8916729E+06    6.9035120E+03    3.4690460E-02    2.8744642E+06    4.7642184E-04    2.8747593E+06
   -1.03   900.000   -1.324E+01    2.9348045E+06    7.0409658E+03    3.4569894E-02    2.9181357E+06   -7.6968727E-04    2.9203515E+06
   -1.02   900.000   -1.353E+01    2.9767135E+06    7.1817235E+03    3.4320742E-02    2.9605830E+06   -2.0226531E-03    2.9647561E+06
   -1.01   900.000   -1.383E+01    3.0176184E+06    7.3305933E+03    3.3948285E-02    3.0020109E+06   -3.2797692E-03    3.0081497E+06
   -1.00   900.000   -1.413E+01    3.0577428E+06    7.4921489E+03    3.3462985E-02    3.0426320E+06   -4.5376894E-03    3.0507210E+06
   -0.99   900.000   -1.444E+01    3.0972969E+06    7.6704166E+03    3.2879668E-02    3.0826473E+06   -5.7924290E-03    3.0926522E+06
   -0.98   900.000   -1.475E+01    3.1364599E+06    7.8685446E+03    3.2216387E-02    3.1222301E+06   -7.0394635E-03    3.1341030E+06
   -0.97   900.000   -1.506E+01    3.1753684E+06    8.0884714E+03    3.1493079E-02    3.1615132E+06   -8.2739006E-03    3.1751973E+06
   -0.96   900.000   -1.537E+01    3.2141099E+06    8.3306132E+03    3.0730172E-02    3.2005836E+06   -9.4907009E-03    3.2160164E+06
   -0.95   900.000   -1.569E+01    3.2527229E+06    8.5935932E+03    2.9947282E-02    3.2394816E+06   -1.0684917E-02    3.2565983E+06
   -0.94   900.000   -1.601E+01    3.2912044E+06    8.8740417E+03    2.9162098E-02    3.2782085E+06   -1.1851931E-02    3.2969431E+06
   -0.93   900.000   -1.633E+01    3.3295226E+06    9.1664908E+03    2.8389550E-02    3.3167397E+06   -1.2987671E-02    3.3370251E+06
   -0.92   900.000   -1.666E+01    3.3676351E+06    9.4633907E+03    2.7641303E-02    3.3550416E+06   -1.4088802E-02    3.3768102E+06
   -0.91   900.000   -1.699E+01    3.4055085E+06    9.7552667E+03    2.6925583E-02    3.3930923E+06   -1.5152882E-02    3.4162738E+06
   -0.90   900.000   -1.733E+01    3.4431376E+06    1.0031026E+04    2.6247321E-02    3.4308995E+06   -1.6178478E-02    3.4554206E+06
   -0.89   900.000   -1.767E+01    3.4805618E+06    1.0278408E+04    2.5608548E-02    3.4685176E+06   -1.7165232E-02    3.4943004E+06
   -0.88   900.000   -1.801E+01    3.5178755E+06    1.0484566E+04    2.5008975E-02    3.5060575E+06   -1.8113853E-02    3.5330182E+06
   -0.87   900.000   -1.836E+01    3.5552319E+06    1.0636733E+04    2.4446653E-02    3.5436898E+06   -1.9026035E-02    3.5717385E+06
   -0.86   900.000   -1.871E+01    3.5928387E+06    1.0722931E+04    2.3918631E-02    3.5816404E+06   -1.9904262E-02    3.6106805E+06
   -0.85   900.000   -1.906E+01    3.6309467E+06    1.0732652E+04    2.3421511E-02    3.6201782E+06   -2.0751514E-02    3.6501070E+06
   -0.84   900.000   -1.942E+01    3.6698320E+06    1.0657465E+04    2.2951865E-02    3.6595976E+06   -2.1570873E-02    3.6903062E+06
   -0.83   900.000   -1.978E+01    3.7097754E+06    1.0491472E+04    2.2506465E-02    3.7001961E+06   -2.2365056E-02    3.7315705E+06
   -0.82   900.000   -2.015E+01    3.7510392E+06    1.0231593E+04    2.2082350E-02    3.7422511E+06   -2.3135916E-02    3.7741729E+06
   -0.81   900.000   -2.052E+01    3.7938460E+06    9.8776362E+03    2.1676769E-02    3.7859978E+06   -2.3883957E-02    3.8183451E+06
   -0.80   900.000   -2.089E+01    3.8383602E+06    9.4321724E+03    2.1287051E-02    3.8316102E+06   -2.4607925E-02    3.8642579E+06
   -0.79   900.000   -2.127E+01    3.8846739E+06    8.9002266E+03    2.0910471E-02    3.8791867E+06   -2.5304516E-02    3.9120075E+06
   -0.78   900.000   -2.165E+01    3.9327989E+06    8.2888378E+03    2.0544171E-02    3.9287414E+06   -2.5968237E-02    3.9616063E+06
   -0.77   900.000   -2.204E+01    3.9826636E+06    7.6065419E+03    2.0185149E-02    3.9802013E+06   -2.6591455E-02    4.0129807E+06
   -0.76   900.000   -2.243E+01    4.0341158E+06    6.8628436E+03    1.9830350E-02    4.0334092E+06   -2.7164610E-02    4.0659735E+06
   -0.75   900.000   -2.283E+01    4.0869293E+06    6.0677335E+03    1.9476819E-02    4.0881305E+06   -2.7676605E-02    4.1203519E+06
   -0.74   900.000   -2.323E+01    4.1408150E+06    5.2312999E+03    1.9121887E-02    4.1440649E+06   -2.8115305E-02    4.1758188E+06
   -0.73   900.000   -2.363E+01    4.1954341E+06    4.3634623E+03    1.8763359E-02    4.2008601E+06   -2.8468116E-02    4.2320272E+06
   -0.72   900.000   -2.404E+01    4.2504128E+06    3.4738332E+03    1.8399653E-02    4.2581274E+06   -2.8722574E-02    4.2885963E+06
   -0.71   900.000   -2.445E+01    4.3053590E+06    2.5716937E+03    1.8029876E-02    4.3154580E+06   -2.8866874E-02    4.3451275E+06
   -0.70   900.000   -2.487E+01    4.3598775E+06    1.6660499E+03    1.7653839E-02    4.3724395E+06   -2.8890303E-02    4.4012212E+06
   -0.69   900.000   -2.529E+01    4.4135855E+06    7.6572723E+02    1.7271995E-02    4.4286708E+06   -2.8783527E-02    4.4564918E+06
   -0.68   900.000   -2.572E+01    4.4661258E+06   -1.2054308E+02    1.6885344E-02    4.4837758E+06   -2.8538725E-02    4.5105808E+06
   -0.67   900.000   -2.614E+01    4.5171788E+06   -9.8408475E+02    1.6495297E-02    4.5374147E+06   -2.8149580E-02    4.5631678E+06
   -0.66   900.000   -2.658E+01    4.5664709E+06   -1.8163102E+03    1.6103528E-02    4.5892920E+06   -2.7611174E-02    4.6139783E+06
   -0.65   900.000   -2.701E+01    4.6137800E+06   -2.6088366E+03    1.5711802E-02    4.6391618E+06   -2.6919849E-02    4.6627882E+06
   -0.64   900.000   -2.745E+01    4.6589375E+06   -3.3536767E+03    1.5321784E-02    4.6868293E+06   -2.6073089E-02    4.7094252E+06
   -0.63   900.000   -2.790E+01    4.7018275E+06   -4.0434836E+03    1.4934816E-02    4.7321497E+06   -2.5069513E-02    4.7537669E+06
   -0.62   900.000   -2.834E+01    4.7423824E+06   -4.6718206E+03    1.4551645E-02    4.7750243E+06   -2.3909012E-02    4.7957359E+06
   -0.61   900.000   -2.879E+01    4.7805768E+06   -5.2334259E+03    1.4172127E-02    4.8153942E+06   -2.2593075E-02    4.8352936E+06
   -0.60   900.000   -2.924E+01    4.8164191E+06   -5.7244450E+03    1.3794897E-02    4.8532336E+06   -2.1125286E-02    4.8724325E+06
   -0.59   900.000   -2.969E+01    4.8499438E+06   -6.1426095E+03    1.3417057E-02    4.8885428E+06   -1.9511952E-02    4.9071683E+06
   -0.58   900.000   -3.015E+01    4.8812032E+06   -6.4873485E+03    1.3033911E-02    4.9213415E+06   -1.7762811E-02    4.9395329E+06
   -0.57   900.000   -3.061E+01    4.9102608E+06   -6.7598245E+03    1.2638806E-02    4.9516640E+06   -1.5891707E-02    4.9695684E+06
   -0.56   900.000   -3.106E+01    4.9371859E+06   -6.9628925E+03    1.2223128E-02    4.9795551E+06   -1.3917140E-02    4.9973236E+06
   -0.55   900.000   -3.152E+01    4.9620500E+06   -7.1009837E+03    1.1776491E-02    5.0050683E+06   -1.1862590E-02    5.0228510E+06
   -0.54   900.000   -3.198E+01    4.9849250E+06   -7.1799184E+03    1.1287142E-02    5.0282648E+06   -9.7565313E-03    5.0462065E+06
   -0.53   900.000   -3.244E+01    5.0058826E+06   -7.2066572E+03    1.0742568E-02    5.0492134E+06   -7.6320705E-03    5.0674496E+06
   -0.52   900.000   -3.290E+01    5.0249936E+06   -7.1889995E+03    1.0130265E-02    5.0679904E+06   -5.5261989E-03    5.0866444E+06
   -0.51   900.000   -3.336E+01    5.0423289E+06   -7.1352408E+03    9.4386086E-03    5.0846798E+06   -3.4786669E-03    5.1038602E+06
   -0.50   900.000   -3.382E+01    5.0579587E+06   -7.0538009E+03    8.6577346E-03    5.0993720E+06   -1.5305474E-03    5.1191722E+06
   -0.49   900.000   -3.429E+01    5.0719527E+06   -6.9528340E+03    7.7803441E-03    5.1121626E+06    2.7741440E-04    5.1326611E+06
   -0.48   900.000   -3.475E+01    5.0843788E+06   -6.8398315E+03    6.8023422E-03    5.1231497E+06    1.9065427E-03    5.1444121E+06
   -0.47   900.000   -3.521E+01    5.0953020E+06   -6.7212304E+03    5.7232501E-03    5.1324318E+06    3.3219248E-03    5.1545128E+06
   -0.46   900.000   -3.566E+01    5.1047834E+06   -6.6020394E+03    4.5463521E-03    5.1401042E+06    4.4939233E-03    5.1630515E+06
   -0.45   900.000   -3.612E+01    5.1128787E+06   -6.4855055E+03    3.2785722E-03    5.1462574E+06    5.3993897E-03    5.1701150E+06
   -0.44   900.000   -3.658E+01    5.1196384E+06   -6.3728439E+03    1.9301080E-03    5.1509753E+06    6.0224922E-03    5.1757865E+06
   -0.43   900.000   -3.703E+01    5.1251087E+06   -6.2630674E+03    5.1387268E-04    5.1543352E+06    6.3551059E-03    5.1801454E+06
   -0.42   900.000   -3.749E+01    5.1293327E+06   -6.1529501E+03   -9.5518894E-04    5.1564093E+06    6.3967531E-03    5.1832675E+06
   -0.41   900.000   -3.794E+01    5.1323543E+06   -6.0371606E+03   -2.4608396E-03    5.1572674E+06    6.1541164E-03    5.1852264E+06
   -0.40   900.000   -3.839E+01    5.1342216E+06   -5.9085876E+03   -3.9862802E-03    5.1569811E+06    5.6401822E-03    5.1860962E+06
   -0.39   900.000   -3.884E+01    5.1349916E+06   -5.7588625E+03   -5.5148223E-03    5.1556282E+06    4.8730937E-03    5.1859547E+06
   -0.38   900.000   -3.929E+01    5.1347337E+06   -5.5790558E+03   -7.0304719E-03    5.1532974E+06    3.8748152E-03    5.1848868E+06
   -0.37   900.000   -3.973E+01    5.1335329E+06   -5.3604950E+03   -8.5184103E-03    5.1500909E+06    2.6697154E-03    5.1829865E+06
   -0.36   900.000   -4.018E+01    5.1314903E+06   -5.0956294E+03   -9.9653739E-03    5.1461261E+06    1.2831839E-03    5.1803576E+06
   -0.35   900.000   -4.062E+01    5.1287211E+06   -4.7788461E+03   -1.1359940E-02    5.1415342E+06   -2.5962014E-04    5.1771128E+06
   -0.34   900.000   -4.106E+01    5.1253506E+06   -4.4071447E+03   -1.2692730E-02    5.1364558E+06   -1.9348004E-03    5.1733691E+06
   -0.33   900.000   -4.150E+01    5.1215068E+06   -3.9805880E+03   -1.3956537E-02    5.1310339E+06   -3.7204794E-03    5.1692423E+06
   -0.32   900.000   -4.194E+01    5.1173115E+06   -3.5024752E+03   -1.5146378E-02    5.1254044E+06   -5.5972500E-03    5.1648383E+06
   -0.31   900.000   -4.237E+01    5.1128704E+06   -2.9792184E+03   -1.6259472E-02    5.1196868E+06   -7.5483235E-03    5.1602450E+06
   -0.30   900.000   -4.281E+01    5.1082634E+06   -2.4199428E+03   -1.7295137E-02    5.1139727E+06   -9.5594022E-03    5.1555232E+06
   -0.29   900.000   -4.324E+01    5.1035364E+06   -1.8358638E+03   -1.8254603E-02    5.1083177E+06   -1.1618320E-02    5.1506991E+06
   -0.28   900.000   -4.368E+01    5.0986946E+06   -1.2395215E+03   -1.9140744E-02    5.1027341E+06   -1.3714506E-02    5.1457593E+06
   -0.27   900.000   -4.411E+01    5.0936997E+06   -6.4395880E+02   -1.9957731E-02    5.0971874E+06   -1.5838333E-02    5.1406478E+06
   -0.26   900.000   -4.455E+01    5.0884693E+06   -6.1933458E+01   -2.0710629E-02    5.0915951E+06   -1.7980403E-02    5.1352667E+06
   -0.25   900.000   -4.498E+01    5.0828800E+06    4.9476832E+02   -2.1404941E-02    5.0858301E+06   -2.0130828E-02    5.1294793E+06
   -0.24   900.000   -4.542E+01    5.0767728E+06    1.0158676E+03   -2.2046136E-02    5.0797259E+06   -2.2278562E-02    5.1231162E+06
   -0.23   900.000   -4.586E+01    5.0699608E+06    1.4929586E+03   -2.2639165E-02    5.0730850E+06   -2.4410826E-02    5.1159833E+06
   -0.22   900.000   -4.630E+01    5.0622396E+06    1.9197107E+03   -2.3188004E-02    5.0656891E+06   -2.6512694E-02    5.1078720E+06
   -0.21   900.000   -4.674E+01    5.0533982E+06    2.2919299E+03   -2.3695217E-02    5.0573115E+06   -2.8566862E-02    5.0985703E+06
   -0.20   900.000   -4.719E+01    5.0432319E+06    2.6075166E+03   -2.4161580E-02    5.0477300E+06   -3.0553638E-02    5.0878752E+06
   -0.19   900.000   -4.763E+01    5.0315560E+06    2.8663579E+03   -2.4585753E-02    5.0367414E+06   -3.2451178E-02    5.0756063E+06
   -0.18   900.000   -4.809E+01    5.0182195E+06    3.0701885E+03   -2.4964044E-02    5.0241760E+06   -3.4235941E-02    5.0616187E+06
   -0.17   900.000   -4.854E+01    5.0031196E+06    3.2224442E+03   -2.5290248E-02    5.0099120E+06   -3.5883344E-02    5.0458169E+06
   -0.16   900.000   -4.900E+01    4.9862143E+06    3.3281235E+03   -2.5555622E-02    4.9938892E+06   -3.7368558E-02    5.0281672E+06
   -0.15   900.000   -4.947E+01    4.9675344E+06    3.3936559E+03   -2.5748982E-02    4.9761202E+06   -3.8667382E-02    5.0087077E+06
   -0.14   900.000   -4.994E+01    4.9471906E+06    3.4267685E+03   -2.5856977E-02    4.9566989E+06   -3.9757100E-02    4.9875562E+06
   -0.13   900.000   -5.041E+01    4.9253784E+06    3.4363339E+03   -2.5864540E-02    4.9358044E+06   -4.0617265E-02    4.9649140E+06
   -0.12   900.000   -5.089E+01    4.9023771E+06    3.4321746E+03   -2.5755523E-02    4.9137008E+06   -4.1230331E-02    4.9410639E+06
   -0.11   900.000   -5.138E+01    4.8785428E+06    3.4248052E+03   -2.5513511E-02    4.8907302E+06   -4.1582105E-02    4.9163643E+06
   -0.10   900.000   -5.188E+01    4.8542969E+06    3.4250951E+03   -2.5122782E-02    4.8673008E+06   -4.1662010E-02    4.8912363E+06
   -0.09   900.000   -5.238E+01    4.8301086E+06    3.4438494E+03   -2.4569363E-02    4.8438704E+06   -4.1463180E-02    4.8661474E+06
   -0.08   900.000   -5.289E+01    4.8064738E+06    3.4913155E+03   -2.3842118E-02    4.8209243E+06   -4.0982441E-02    4.8415898E+06
   -0.07   900.000   -5.340E+01    4.7838904E+06    3.5766440E+03   -2.2933809E-02    4.7989516E+06   -4.0220237E-02    4.8180565E+06
   -0.06   900.000   -5.393E+01    4.7628331E+06    3.7073384E+03   -2.1842047E-02    4.7784197E+06   -3.9180589E-02    4.7960158E+06
   -0.05   900.000   -5.446E+01    4.7437285E+06    3.8887444E+03   -2.0570074E-02    4.7597493E+06   -3.7871117E-02    4.7758876E+06
   -0.04   900.000   -5.500E+01    4.7269321E+06    4.1236249E+03   -1.9127324E-02    4.7432922E+06   -3.6303181E-02    4.7580204E+06
   -0.03   900.000   -5.554E+01    4.7127104E+06    4.4118652E+03   -1.7529707E-02    4.7293127E+06   -3.4492107E-02    4.7426737E+06
   -0.02   900.000   -5.610E+01    4.7012275E+06    4.7503419E+03   -1.5799611E-02    4.7179751E+06   -3.2457487E-02    4.7300055E+06
   -0.01   900.000   -5.666E+01    4.6925390E+06    5.1329718E+03   -1.3965585E-02    4.7093367E+06   -3.0223442E-02    4.7200665E+06
    0.00   900.000   -5.723E+01    4.6865922E+06    5.5509410E+03   -1.2061730E-02    4.7033490E+06   -2.7818788E-02    4.7128011E+06
    0.01   900.000   -5.780E+01    4.6832341E+06    5.9930963E+03   -1.0126798E-02    4.6998655E+06   -2.5276973E-02    4.7080552E+06
    0.02   900.000   -5.839E+01    4.6822256E+06    6.4464672E+03   -8.2030441E-03    4.6986554E+06   -2.2635729E-02    4.7055919E+06
    0.03   900.000   -5.898E+01    4.6832617E+06    6.8968770E+03   -6.3348628E-03    4.6994243E+06   -1.9936375E-02    4.7051110E+06
    0.04   900.000   -5.957E+01    4.6859962E+06    7.3295946E+03   -4.5672619E-03    4.7018380E+06   -1.7222749E-02    4.7062737E+06
    0.05   900.000   -6.018E+01    4.6900680E+06    7.7299806E+03   -2.9442290E-03    4.7055497E+06   -1.4539832E-02    4.7087302E+06
    0.06   900.000   -6.079E+01    4.6951297E+06    8.0840854E+03   -1.5070465E-03    4.7102271E+06   -1.1932113E-02    4.7121462E+06
    0.07   900.000   -6.140E+01    4.7008733E+06    8.3791679E+03   -2.9261566E-04    4.7155786E+06   -9.4418339E-03    4.7162299E+06
    0.08   900.000   -6.202E+01    4.7070535E+06    8.6041121E+03    6.6814056E-04    4.7213754E+06   -7.1072278E-03    4.7207533E+06
    0.09   900.000   -6.265E+01    4.7135051E+06    8.7497372E+03    1.3517249E-03    4.7274692E+06   -4.9609029E-03    4.7255704E+06
    0.10   900.000   -6.328E+01    4.7201540E+06    8.8090006E+03    1.7432814E-03    4.7338026E+06   -3.0284862E-03    4.7306268E+06
    0.11   900.000   -6.392E+01    4.7270208E+06    8.7771079E+03    1.8374981E-03    4.7404119E+06   -1.3276315E-03    4.7359627E+06
    0.12   900.000   -6.457E+01    4.7342163E+06    8.6515417E+03    1.6391161E-03    4.7474220E+06    1.3254924E-04    4.7417083E+06
    0.13   900.000   -6.522E+01    4.7419290E+06    8.4320255E+03    1.1629859E-03    4.7550348E+06    1.3516062E-03    4.7480710E+06
    0.14   900.000   -6.587E+01    4.7504078E+06    8.1204334E+03    4.3363439E-04    4.7635099E+06    2.3374402E-03    4.7553176E+06
    0.15   900.000   -6.654E+01    4.7599383E+06    7.7206549E+03   -5.1565134E-04    4.7731420E+06    3.1056097E-03    4.7637503E+06
    0.16   900.000   -6.720E+01    4.7708179E+06    7.2384225E+03   -1.6441735E-03    4.7842352E+06    3.6783293E-03    4.7736819E+06
    0.17   900.000   -6.788E+01    4.7833295E+06    6.6811044E+03   -2.9055138E-03    4.7970766E+06    4.0832507E-03    4.7854096E+06
    0.18   900.000   -6.856E+01    4.7977176E+06    6.0574683E+03   -4.2494385E-03    4.8119126E+06    4.3521196E-03    4.7991900E+06
    0.19   900.000   -6.924E+01    4.8141670E+06    5.3774185E+03   -5.6238774E-03    4.8289272E+06    4.5193998E-03    4.8152185E+06
    0.20   900.000   -6.994E+01    4.8327866E+06    4.6517059E+03   -6.9768402E-03    4.8482259E+06    4.6209434E-03    4.8336123E+06
    0.21   900.000   -7.063E+01    4.8535988E+06    3.8916099E+03   -8.2581606E-03    4.8698248E+06    4.6927716E-03    4.8543992E+06
    0.22   900.000   -7.134E+01    4.8765346E+06    3.1085888E+03   -9.4209983E-03    4.8936454E+06    4.7700075E-03    4.8775121E+06
    0.23   900.000   -7.205E+01    4.9014343E+06    2.3138977E+03   -1.0423073E-02    4.9195155E+06    4.8859847E-03    4.9027900E+06
    0.24   900.000   -7.277E+01    4.9280547E+06    1.5181786E+03   -1.1227643E-02    4.9471759E+06    5.0715331E-03    4.9299840E+06
    0.25   900.000   -7.349E+01    4.9560804E+06    7.3103961E+02   -1.1804273E-02    4.9762918E+06    5.3544295E-03    4.9587694E+06
    0.26   900.000   -7.422E+01    4.9851404E+06   -3.9348996E+01   -1.2129414E-02    5.0064693E+06    5.7589899E-03    4.9887614E+06
    0.27   900.000   -7.495E+01    5.0148267E+06   -7.8660127E+02   -1.2186853E-02    5.0372751E+06    6.3057775E-03    5.0195350E+06
    0.28   900.000   -7.569E+01    5.0447155E+06   -1.5063586E+03   -1.1967994E-02    5.0682575E+06    7.0114053E-03    5.0506462E+06
    0.29   900.000   -7.643E+01    5.0743885E+06   -2.1963862E+03   -1.1471974E-02    5.0989690E+06    7.8884166E-03    5.0816542E+06
    0.30   900.000   -7.718E+01    5.1034521E+06   -2.8564932E+03   -1.0705550E-02    5.1289868E+06    8.9452355E-03    5.1121412E+06
    0.31   900.000   -7.794E+01    5.1315543E+06   -3.4882641E+03   -9.6827239E-03    5.1579301E+06    1.0186184E-02    5.1417298E+06
    0.32   900.000   -7.870E+01    5.1583970E+06   -4.0946165E+03   -8.4240684E-03    5.1854740E+06    1.1611557E-02    5.1700953E+06
    0.33   900.000   -7.946E+01    5.1837424E+06   -4.6792191E+03   -6.9557822E-03    5.2113570E+06    1.3217740E-02    5.1969730E+06
    0.34   900.000   -8.023E+01    5.2074147E+06   -5.2458247E+03   -5.3085212E-03    5.2353833E+06    1.4997343E-02    5.2221588E+06
    0.35   900.000   -8.100E+01    5.2292955E+06   -5.7975785E+03   -3.5161103E-03    5.2574190E+06    1.6939311E-02    5.2455051E+06
    0.36   900.000   -8.178E+01    5.2493154E+06   -6.3363665E+03   -1.6142565E-03    5.2773834E+06    1.9028966E-02    5.2669115E+06
    0.37   900.000   -8.257E+01    5.2674414E+06   -6.8622604E+03    3.6061255E-04    5.2952371E+06    2.1247942E-02    5.2863126E+06
    0.38   900.000   -8.336E+01    5.2836623E+06   -7.3731058E+03    2.3722835E-03    5.3109674E+06    2.3573995E-02    5.3036630E+06
    0.39   900.000   -8.415E+01    5.2979739E+06   -7.8642908E+03    4.3854108E-03    5.3245727E+06    2.5980705E-02    5.3189236E+06
    0.40   900.000   -8.495E+01    5.3103644E+06   -8.3287171E+03    6.3658884E-03    5.3360485E+06    2.8437117E-02    5.3320479E+06
    0.41   900.000   -8.575E+01    5.3208026E+06   -8.7569848E+03    8.2809955E-03    5.3453747E+06    3.0907419E-02    5.3429713E+06
    0.42   900.000   -8.656E+01    5.3292283E+06   -9.1377915E+03    1.0099415E-02    5.3525061E+06    3.3350785E-02    5.3516035E+06
    0.43   900.000   -8.737E+01    5.3355470E+06   -9.4585297E+03    1.1791242E-02    5.3573668E+06    3.5721510E-02    5.3578249E+06
    0.44   900.000   -8.819E+01    5.3396278E+06   -9.7060531E+03    1.3328102E-02    5.3598476E+06    3.7969574E-02    5.3614861E+06
    0.45   900.000   -8.902E+01    5.3413046E+06   -9.8675682E+03    1.4683459E-02    5.3598068E+06    4.0041712E-02    5.3624112E+06
    0.46   900.000   -8.985E+01    5.3403808E+06   -9.9315900E+03    1.5833155E-02    5.3570744E+06    4.1883032E-02    5.3604032E+06
    0.47   900.000   -9.068E+01    5.3366356E+06   -9.8888908E+03    1.6756161E-02    5.3514577E+06    4.3439115E-02    5.3552511E+06
    0.48   900.000   -9.152E+01    5.3298330E+06   -9.7333626E+03    1.7435471E-02    5.3427491E+06    4.4658500E-02    5.3467387E+06
    0.49   900.000   -9.237E+01    5.3197303E+06   -9.4627125E+03    1.7859018E-02    5.3307338E+06    4.5495360E-02    5.3346531E+06
    0.50   900.000   -9.321E+01    5.3060883E+06   -9.0789171E+03    1.8020477E-02    5.3151995E+06    4.5912162E-02    5.3187929E+06
    0.51   900.000   -9.407E+01    5.2886804E+06   -8.5883769E+03    1.7919813E-02    5.2959440E+06    4.5882057E-02    5.2989762E+06
    0.52   900.000   -9.492E+01    5.2673023E+06   -8.0017371E+03    1.7563457E-02    5.2727846E+06    4.5390821E-02    5.2750481E+06
    0.53   900.000   -9.579E+01    5.2417803E+06   -7.3333729E+03    1.6964028E-02    5.2455658E+06    4.4438138E-02    5.2468871E+06
    0.54   900.000   -9.665E+01    5.2119794E+06   -6.6005756E+03    1.6139586E-02    5.2141668E+06    4.3038149E-02    5.2144107E+06
    0.55   900.000   -9.751E+01    5.1778095E+06   -5.8225109E+03    1.5112444E-02    5.1785079E+06    4.1219185E-02    5.1775796E+06
    0.56   900.000   -9.838E+01    5.1392306E+06   -5.0190528E+03    1.3907651E-02    5.1385558E+06    3.9022728E-02    5.1364012E+06
    0.57   900.000   -9.925E+01    5.0962556E+06   -4.2096130E+03    1.2551300E-02    5.0943267E+06    3.6501662E-02    5.0909311E+06
    0.58   900.000   -1.001E+02    5.0489513E+06   -3.4120860E+03    1.1068847E-02    5.0458872E+06    3.3717923E-02    5.0412722E+06
    0.59   900.000   -1.010E+02    4.9974359E+06   -2.6420128E+03    9.4836617E-03    4.9933533E+06    3.0739721E-02    4.9875726E+06
    0.60   900.000   -1.018E+02    4.9418755E+06   -1.9120324E+03    7.8159983E-03    4.9368864E+06    2.7638497E-02    4.9300204E+06
    0.61   900.000   -1.027E+02    4.8824773E+06   -1.2316494E+03    6.0825357E-03    4.8766875E+06    2.4485802E-02    4.8688377E+06
    0.62   900.000   -1.036E+02    4.8194827E+06   -6.0729980E+02    4.2965805E-03    4.8129904E+06    2.1350279E-02    4.8042735E+06
    0.63   900.000   -1.044E+02    4.7531590E+06   -4.2664536E+01    2.4689216E-03    4.7460541E+06    1.8294935E-02    4.7365958E+06
    0.64   900.000   -1.053E+02    4.6837927E+06    4.6084937E+02    6.0924275E-04    4.6761562E+06    1.5374835E-02    4.6660859E+06
    0.65   900.000   -1.061E+02    4.6116844E+06    9.0354550E+02   -1.2720951E-03    4.6035881E+06    1.2635348E-02    4.5930335E+06
    0.66   900.000   -1.069E+02    4.5371456E+06    1.2868751E+03   -3.1621505E-03    4.5286524E+06    1.0111014E-02    4.5177347E+06
    0.67   900.000   -1.078E+02    4.4604988E+06    1.6129402E+03   -5.0436614E-03    4.4516629E+06    7.8250601E-03    4.4404930E+06
    0.68   900.000   -1.086E+02    4.3820791E+06    1.8841046E+03   -6.8937391E-03    4.3729470E+06    5.7895681E-03    4.3616215E+06
    0.69   900.000   -1.094E+02    4.3022384E+06    2.1027318E+03   -8.6832195E-03    4.2928498E+06    4.0062160E-03    4.2814485E+06
    0.70   900.000   -1.102E+02    4.2213494E+06    2.2710462E+03   -1.0376808E-02    4.2117393E+06    2.4675216E-03    4.2003225E+06
    0.71   900.000   -1.110E+02    4.1398107E+06    2.3910964E+03   -1.1934050E-02    4.1300107E+06    1.1584598E-03    4.1186173E+06
    0.72   900.000   -1.117E+02    4.0580493E+06    2.4647918E+03   -1.3311054E-02    4.0480899E+06    5.8320729E-05    4.0367365E+06
    0.73   900.000   -1.125E+02    3.9765224E+06    2.4939793E+03   -1.4462788E-02    3.9664351E+06   -8.5733570E-04    3.9551154E+06
    0.74   900.000   -1.132E+02    3.8957162E+06    2.4805294E+03   -1.5345731E-02    3.8855352E+06   -1.6147687E-03    3.8742205E+06
    0.75   900.000   -1.139E+02    3.8161425E+06    2.4264096E+03   -1.5920580E-02    3.8059061E+06   -2.2403143E-03    3.7945470E+06
    0.76   900.000   -1.147E+02    3.7383327E+06    2.3337300E+03   -1.6154777E-02    3.7280840E+06   -2.7589116E-03    3.7166126E+06
    0.77   900.000   -1.153E+02    3.6628297E+06    2.2047608E+03   -1.6024607E-02    3.6526165E+06   -3.1929631E-03    3.6409501E+06
    0.78   900.000   -1.160E+02    3.5901776E+06    2.0419249E+03   -1.5516702E-02    3.5800515E+06   -3.5615574E-03    3.5680967E+06
    0.79   900.000   -1.167E+02    3.5209106E+06    1.8477805E+03   -1.4628867E-02    3.5109252E+06   -3.8800472E-03    3.4985831E+06
    0.80   900.000   -1.173E+02    3.4555403E+06    1.6250096E+03   -1.3370189E-02    3.4457487E+06   -4.1599437E-03    3.4329205E+06
    0.81   900.000   -1.180E+02    3.3945433E+06    1.3764274E+03   -1.1760505E-02    3.3849949E+06   -4.4090736E-03    3.3715871E+06
    0.82   900.000   -1.186E+02    3.3383482E+06    1.1050250E+03   -9.8293172E-03    3.3290854E+06   -4.6319347E-03    3.3150155E+06
    0.83   900.000   -1.192E+02    3.2873234E+06    8.1405218E+02   -7.6143074E-03    3.2783782E+06   -4.8301933E-03    3.2635791E+06
    0.84   900.000   -1.198E+02    3.2417664E+06    5.0713541E+02   -5.1596101E-03    3.2331572E+06   -5.0032763E-03    3.2175810E+06
    0.85   900.000   -1.204E+02    3.2018932E+06    1.8842151E+02   -2.5139916E-03    3.1936223E+06   -5.1490210E-03    3.1772430E+06
    0.86   900.000   -1.209E+02    3.1678308E+06   -1.3727339E+02    2.7092726E-04    3.1598823E+06   -5.2643576E-03    3.1426967E+06
    0.87   900.000   -1.215E+02    3.1396104E+06   -4.6433478E+02    3.1423114E-03    3.1319498E+06   -5.3459996E-03    3.1139773E+06
    0.88   900.000   -1.221E+02    3.1171639E+06   -7.8626892E+02    6.0475520E-03    3.1097375E+06   -5.3911136E-03    3.0910191E+06
    0.89   900.000   -1.226E+02    3.1003226E+06   -1.0956970E+03    8.9354880E-03    3.0930590E+06   -5.3979325E-03    3.0736541E+06
    0.90   900.000   -1.231E+02    3.0888191E+06   -1.3844457E+03    1.1757413E-02    3.0816311E+06   -5.3662675E-03    3.0616144E+06
    0.91   900.000   -1.236E+02    3.0822931E+06   -1.6437461E+03    1.4467896E-02    3.0750805E+06   -5.2978670E-03    3.0545379E+06
    0.92   900.000   -1.242E+02    3.0803004E+06   -1.8645406E+03    1.7025455E-02    3.0729537E+06   -5.1965765E-03    3.0519781E+06
    0.93   900.000   -1.247E+02    3.0823266E+06   -2.0378849E+03    1.9393102E-02    3.0747310E+06   -5.0682656E-03    3.0534178E+06
    0.94   900.000   -1.252E+02    3.0878038E+06   -2.1554166E+03    2.1538805E-02    3.0798438E+06   -4.9205091E-03    3.0582869E+06
    0.95   900.000   -1.257E+02    3.0961314E+06   -2.2098530E+03    2.3435857E-02    3.0876954E+06   -4.7620442E-03    3.0659833E+06
    0.96   900.000   -1.262E+02    3.1066980E+06   -2.1954720E+03    2.5063158E-02    3.0976834E+06   -4.6020539E-03    3.0758960E+06
    0.97   900.000   -1.267E+02    3.1189057E+06   -2.1085269E+03    2.6405400E-02    3.1092230E+06   -4.4493560E-03    3.0874289E+06
    0.98   900.000   -1.272E+02    3.1321921E+06   -1.9475525E+03    2.7453145E-02    3.1217698E+06   -4.3115973E-03    3.1000238E+06
    0.99   900.000   -1.277E+02    3.1460516E+06   -1.7135282E+03    2.8202771E-02    3.1348394E+06   -4.1945529E-03    3.1131812E+06
    1.00   900.000   -1.282E+02    3.1600512E+06   -1.4098823E+03    2.8656302E-02    3.1480236E+06   -4.1016202E-03    3.1264771E+06
    1.01   900.000   -1.287E+02    3.1738428E+06   -1.0423377E+03    2.8821099E-02    3.1610013E+06   -4.0335700E-03    3.1395740E+06
    1.02   900.000   -1.292E+02    3.1871685E+06   -6.1862228E+02    2.8709458E-02    3.1735427E+06   -3.9885799E-03    3.1522270E+06
    1.03   900.000   -1.297E+02    3.1998602E+06   -1.4807758E+02    2.8338104E-02    3.1855078E+06   -3.9625377E-03    3.1642823E+06
    1.04   900.000   -1.302E+02    3.2118327E+06    3.5878794E+02    2.7727629E-02    3.1968388E+06   -3.9495633E-03    3.1756706E+06
    1.05   900.000   -1.307E+02    3.2230722E+06    8.9075592E+02    2.6901879E-02    3.2075467E+06   -3.9426763E-03    3.1863948E+06
    1.06   900.000   -1.313E+02    3.2336199E+06    1.4363268E+03    2.5887332E-02    3.2176941E+06   -3.9345207E-03    3.1965131E+06
    1.07   900.000   -1.318E+02    3.2435528E+06    1.9840939E+03    2.4712470E-02    3.2273753E+06   -3.9180604E-03    3.2061196E+06
    1.08   900.000   -1.323E+02    3.2529631E+06    2.5230537E+03    2.3407168E-02    3.2366946E+06   -3.8871725E-03    3.2153228E+06
    1.09   900.000   -1.329E+02    3.2619384E+06    3.0428559E+03    2.2002096E-02    3.2457461E+06   -3.8370883E-03    3.2242250E+06
    1.10   900.000   -1.334E+02    3.2705426E+06    3.5340104E+03    2.0528147E-02    3.2545942E+06   -3.7646571E-03    3.2329029E+06
    1.11   900.000   -1.340E+02    3.2788006E+06    3.9880711E+03    1.9015891E-02    3.2632592E+06   -3.6684334E-03    3.2413917E+06
    1.12   900.000   -1.346E+02    3.2866877E+06    4.3978149E+03    1.7495038E-02    3.2717056E+06   -3.5486127E-03    3.2496728E+06
    1.13   900.000   -1.352E+02    3.2941228E+06    4.7574222E+03    1.5993936E-02    3.2798370E+06   -3.4068546E-03    3.2576677E+06
    1.14   900.000   -1.358E+02    3.3009682E+06    5.0626555E+03    1.4539088E-02    3.2874959E+06   -3.2460404E-03    3.2652362E+06
    1.15   900.000   -1.364E+02    3.3070334E+06    5.3110146E+03    1.3154697E-02    3.2944687E+06   -3.0700112E-03    3.2721805E+06
    1.16   900.000   -1.370E+02    3.3120843E+06    5.5018415E+03    1.1862261E-02    3.3004959E+06   -2.8833223E-03    3.2782544E+06
    1.17   900.000   -1.377E+02    3.3158554E+06    5.6363433E+03    1.0680219E-02    3.3052851E+06   -2.6910374E-03    3.2831758E+06
    1.18   900.000   -1.383E+02    3.3180645E+06    5.7175109E+03    9.6236659E-03    3.3085278E+06   -2.4985666E-03    3.2866424E+06
    1.19   900.000   -1.390E+02    3.3184289E+06    5.7499231E+03    8.7041568E-03    3.3099155E+06   -2.3115387E-03    3.2883483E+06
    1.20   900.000   -1.397E+02    3.3166802E+06    5.7394490E+03    7.9296050E-03    3.3091571E+06   -2.1356890E-03    3.2880007E+06
    1.21   900.000   -1.404E+02    3.3125794E+06    5.6928742E+03    7.3042941E-03    3.3059936E+06   -1.9767384E-03    3.2853356E+06
    1.22   900.000   -1.412E+02    3.3059275E+06    5.6174925E+03    6.8290049E-03    3.3002104E+06   -1.8402443E-03    3.2801300E+06
    1.23   900.000   -1.419E+02    3.2965752E+06    5.5207063E+03    6.5012563E-03    3.2916469E+06   -1.7314115E-03    3.2722126E+06
    1.24   900.000   -1.427E+02    3.2844286E+06    5.4096708E+03    6.3156482E-03    3.2802024E+06   -1.6548606E-03    3.2614694E+06
    1.25   900.000   -1.435E+02    3.2694512E+06    5.2910091E+03    6.2642837E-03    3.2658379E+06   -1.6143635E-03    3.2478472E+06
    1.26   900.000   -1.444E+02    3.2516645E+06    5.1706051E+03    6.3372413E-03    3.2485763E+06   -1.6125621E-03    3.2313539E+06
    1.27   900.000   -1.452E+02    3.2311458E+06    5.0534701E+03    6.5230606E-03    3.2284987E+06   -1.6506954E-03    3.2120560E+06
    1.28   900.000   -1.461E+02    3.2080240E+06    4.9436714E+03    6.8092078E-03    3.2057403E+06   -1.7283655E-03    3.1900744E+06
    1.29   900.000   -1.470E+02    3.1824749E+06    4.8443039E+03    7.1824963E-03    3.1804839E+06   -1.8433772E-03    3.1655796E+06
    1.30   900.000   -1.479E+02    3.1547164E+06    4.7574914E+03    7.6294473E-03    3.1529543E+06   -1.9916911E-03    3.1387859E+06
    1.31   900.000   -1.489E+02    3.1250024E+06    4.6844084E+03    8.1365934E-03    3.1234116E+06   -2.1675272E-03    3.1099454E+06
    1.32   900.000   -1.498E+02    3.0936181E+06    4.6253153E+03    8.6907372E-03    3.0921460E+06   -2.3636517E-03    3.0793429E+06
    1.33   900.000   -1.508E+02    3.0608751E+06    4.5796081E+03    9.2791883E-03    3.0594724E+06   -2.5718616E-03    3.0472905E+06
    1.34   900.000   -1.519E+02    3.0271066E+06    4.5458817E+03    9.8899998E-03    3.0257259E+06   -2.7836576E-03    3.0141227E+06
    1.35   900.000   -1.529E+02    2.9926640E+06    4.5220092E+03    1.0512220E-02    2.9912581E+06   -2.9910640E-03    2.9801925E+06
    1.36   900.000   -1.540E+02    2.9579122E+06    4.5052354E+03    1.1136158E-02    2.9564332E+06   -3.1875221E-03    2.9458666E+06
    1.37   900.000   -1.551E+02    2.9232257E+06    4.4922845E+03    1.1753662E-02    2.9216250E+06   -3.3687573E-03    2.9115219E+06
    1.38   900.000   -1.562E+02    2.8889845E+06    4.4794813E+03    1.2358366E-02    2.8872122E+06   -3.5335092E-03    2.8775403E+06
    1.39   900.000   -1.573E+02    2.8555684E+06    4.4628864E+03    1.2945887E-02    2.8535748E+06   -3.6840178E-03    2.8443040E+06
    1.40   900.000   -1.584E+02    2.8233513E+06    4.4384459E+03    1.3513930E-02    2.8210878E+06   -3.8261911E-03    2.8121896E+06
    1.41   900.000   -1.596E+02    2.7926943E+06    4.4021591E+03    1.4062259E-02    2.7901154E+06   -3.9694146E-03    2.7815614E+06
    1.42   900.000   -1.608E+02    2.7639383E+06    4.3502639E+03    1.4592529E-02    2.7610033E+06   -4.1260194E-03    2.7527638E+06
    1.43   900.000   -1.619E+02    2.7373957E+06    4.2794385E+03    1.5107951E-02    2.7340712E+06   -4.3104679E-03    2.7261141E+06
    1.44   900.000   -1.631E+02    2.7133430E+06    4.1870107E+03    1.5612820E-02    2.7096041E+06   -4.5383512E-03    2.7018941E+06
    1.45   900.000   -1.643E+02    2.6920132E+06    4.0711631E+03    1.6111927E-02    2.6878456E+06   -4.8253111E-03    2.6803436E+06
    1.46   900.000   -1.654E+02    2.6735905E+06    3.9311156E+03    1.6609909E-02    2.6689914E+06   -5.1859902E-03    2.6616546E+06
    1.47   900.000   -1.666E+02    2.6582063E+06    3.7672642E+03    1.7110589E-02    2.6531848E+06   -5.6330957E-03    2.6459671E+06
    1.48   900.000   -1.677E+02    2.6459378E+06    3.5812595E+03    1.7616390E-02    2.6405146E+06   -6.1766309E-03    2.6333678E+06
    1.49   900.000   -1.689E+02    2.6368091E+06    3.3760069E+03    1.8127858E-02    2.6310158E+06   -6.8233137E-03    2.6238902E+06
    1.50   900.000   -1.700E+02    2.6307945E+06    3.1555832E+03    1.8643360E-02    2.6246719E+06   -7.5761742E-03    2.6175183E+06
    1.51   900.000   -1.711E+02    2.6278245E+06    2.9250700E+03    1.9158982E-02    2.6214203E+06   -8.4343080E-03    2.6141913E+06
    1.52   900.000   -1.722E+02    2.6277923E+06    2.6903123E+03    1.9668624E-02    2.6211587E+06   -9.3927546E-03    2.6138107E+06
    1.53   900.000   -1.732E+02    2.6305626E+06    2.4576197E+03    2.0164272E-02    2.6237536E+06   -1.0442479E-02    2.6162478E+06
    1.54   900.000   -1.743E+02    2.6359795E+06    2.2334284E+03    2.0636422E-02    2.6290477E+06   -1.1570446E-02    2.6213523E+06
    1.55   900.000   -1.753E+02    2.6438746E+06    2.0239441E+03    2.1074591E-02    2.6368688E+06   -1.2759794E-02    2.6289599E+06
    1.56   900.000   -1.763E+02    2.6540743E+06    1.8347853E+03    2.1467871E-02    2.6470369E+06   -1.3990139E-02    2.6389000E+06
    1.57   900.000   -1.773E+02    2.6664051E+06    1.6706406E+03    2.1805477E-02    2.6593706E+06   -1.5238021E-02    2.6510012E+06
    1.58   900.000   -1.783E+02    2.6806988E+06    1.5349540E+03    2.2077248E-02    2.6736923E+06   -1.6477546E-02    2.6650968E+06
    1.59   900.000   -1.792E+02    2.6967953E+06    1.4296499E+03    2.2274076E-02    2.6898322E+06   -1.7681215E-02    2.6810278E+06
    1.60   900.000   -1.802E+02    2.7145457E+06    1.3549102E+03    2.2388255E-02    2.7076319E+06   -1.8820953E-02    2.6986463E+06
    1.61   900.000   -1.811E+02    2.7338140E+06    1.3090223E+03    2.2413739E-02    2.7269463E+06   -1.9869295E-02    2.7178172E+06
    1.62   900.000   -1.820E+02    2.7544792E+06    1.2883142E+03    2.2346311E-02    2.7476464E+06   -2.0800661E-02    2.7384204E+06
    1.63   900.000   -1.828E+02    2.7764371E+06    1.2871988E+03    2.2183668E-02    2.7696214E+06   -2.1592646E-02    2.7603520E+06
    1.64   900.000   -1.837E+02    2.7996023E+06    1.2983432E+03    2.1925422E-02    2.7927797E+06   -2.2227197E-02    2.7835267E+06
    1.65   900.000   -1.845E+02    2.8239096E+06    1.3129704E+03    2.1573024E-02    2.8170510E+06   -2.2691595E-02    2.8078781E+06
    1.66   900.000   -1.854E+02    2.8493145E+06    1.3212876E+03    2.1129611E-02    2.8423864E+06   -2.2979140E-02    2.8333602E+06
    1.67   900.000   -1.862E+02    2.8757936E+06    1.3130200E+03    2.0599799E-02    2.8687581E+06   -2.3089466E-02    2.8599462E+06
    1.68   900.000   -1.870E+02    2.9033420E+06    1.2780101E+03    1.9989428E-02    2.8961571E+06   -2.3028485E-02    2.8876277E+06
    1.69   900.000   -1.878E+02    2.9319714E+06    1.2068335E+03    1.9305302E-02    2.9245907E+06   -2.2807946E-02    2.9164109E+06
    1.70   900.000   -1.886E+02    2.9617046E+06    1.0913747E+03    1.8554929E-02    2.9540777E+06   -2.2444674E-02    2.9463129E+06
    1.71   900.000   -1.894E+02    2.9925706E+06    9.2530904E+02    1.7746300E-02    2.9846432E+06   -2.1959560E-02    2.9773563E+06
    1.72   900.000   -1.901E+02    3.0245990E+06    7.0444731E+02    1.6887732E-02    3.0163138E+06   -2.1376393E-02    3.0095638E+06
    1.73   900.000   -1.909E+02    3.0578143E+06    4.2691632E+02    1.5987763E-02    3.0491120E+06   -2.0720615E-02    3.0429528E+06
    1.74   900.000   -1.916E+02    3.0922323E+06    9.3165899E+01    1.5055120E-02    3.0830528E+06   -2.0018106E-02    3.0775319E+06
    1.75   900.000   -1.924E+02    3.1278566E+06   -2.9418702E+02    1.4098728E-02    3.1181413E+06   -1.9294037E-02    3.1132980E+06
    1.76   900.000   -1.931E+02    3.1646791E+06   -7.3065215E+02    1.3127744E-02    3.1543725E+06   -1.8571880E-02    3.1502359E+06
    1.77   900.000   -1.939E+02    3.2026814E+06   -1.2102621E+03    1.2151587E-02    3.1917331E+06   -1.7872599E-02    3.1883210E+06
    1.78   900.000   -1.946E+02    3.2418386E+06   -1.7260303E+03    1.1179909E-02    3.2302054E+06   -1.7214067E-02    3.2275225E+06
    1.79   900.000   -1.954E+02    3.2821252E+06   -2.2704294E+03    1.0222499E-02    3.2697728E+06   -1.6610722E-02    3.2678103E+06
    1.80   900.000   -1.961E+02    3.3235216E+06   -2.8358514E+03    9.2890569E-03    3.3104256E+06   -1.6073478E-02    3.3091613E+06
    1.81   900.000   -1.968E+02    3.3660210E+06   -3.4150131E+03    8.3888415E-03    3.3521684E+06   -1.5609877E-02    3.3515677E+06
    1.82   900.000   -1.976E+02    3.4096352E+06   -4.0012777E+03    7.5301679E-03    3.3950251E+06   -1.5224475E-02    3.3950429E+06
    1.83   900.000   -1.983E+02    3.4543996E+06   -4.5888685E+03    6.7197874E-03    3.4390440E+06   -1.4919391E-02    3.4396273E+06
    1.84   900.000   -1.991E+02    3.5003754E+06   -5.1729602E+03    5.9621847E-03    3.4843001E+06   -1.4694976E-02    3.4853912E+06
    1.85   900.000   -1.998E+02    3.5476500E+06   -5.7496448E+03    5.2588667E-03    3.5308953E+06   -1.4550517E-02    3.5324354E+06
    1.86   900.000   -2.005E+02    3.5963345E+06   -6.3157853E+03    4.6077358E-03    3.5789566E+06   -1.4484879E-02    3.5808885E+06
    1.87   900.000   -2.013E+02    3.6465596E+06   -6.8687828E+03    4.0026498E-03    3.6286319E+06   -1.4497024E-02    3.6309027E+06
    1.88   900.000   -2.020E+02    3.6984703E+06   -7.4062961E+03    3.4332676E-03    3.6800844E+06   -1.4586317E-02    3.6826470E+06
    1.89   900.000   -2.028E+02    3.7522197E+06   -7.9259607E+03    2.8852584E-03    3.7334868E+06   -1.4752592E-02    3.7363003E+06
    1.90   900.000   -2.035E+02    3.8079635E+06   -8.4251516E+03    2.3409065E-03    3.7890151E+06   -1.4995959E-02    3.7920441E+06
    1.91   900.000   -2.043E+02    3.8658560E+06   -8.9008266E+03    1.7800967E-03    3.8468437E+06   -1.5316384E-02    3.8500564E+06
    1.92   900.000   -2.050E+02    3.9260469E+06   -9.3494735E+03    1.1816015E-03    3.9071423E+06   -1.5713095E-02    3.9105076E+06
    1.93   900.000   -2.058E+02    3.9886820E+06   -9.7671661E+03    5.2454552E-04    3.9700739E+06   -1.6183911E-02    3.9735586E+06
    1.94   900.000   -2.066E+02    4.0539042E+06   -1.0149719E+04   -2.1011632E-04    4.0357966E+06   -1.6724575E-02    4.0393617E+06
    1.95   900.000   -2.073E+02    4.1218578E+06   -1.0492919E+04   -1.0382738E-03    4.1044656E+06   -1.7328208E-02    4.1080637E+06
    1.96   900.000   -2.081E+02    4.1926937E+06   -1.0792801E+04   -1.9716395E-03    4.1762378E+06   -1.7984960E-02    4.1798108E+06
    1.97   900.000   -2.089E+02    4.2665745E+06   -1.1045945E+04   -3.0171328E-03    4.2512770E+06   -1.8681905E-02    4.2547548E+06
    1.98   900.000   -2.096E+02    4.3436791E+06   -1.1249752E+04   -4.1767076E-03    4.3297579E+06   -1.9403219E-02    4.3330588E+06
    1.99   900.000   -2.104E+02    4.4242059E+06   -1.1402693E+04   -5.4475982E-03    4.4118697E+06   -2.0130607E-02    4.4149013E+06
    2.00   900.000   -2.112E+02    4.5083720E+06   -1.1504495E+04   -6.8228916E-03    4.4978162E+06   -2.0843937E-02    4.5004781E+06
    2.01   900.000   -2.120E+02    4.5964092E+06   -1.1556261E+04   -8.2923032E-03    4.5878126E+06   -2.1522006E-02    4.5899999E+06
    2.02   900.000   -2.127E+02    4.6885552E+06   -1.1560504E+04   -9.8430129E-03    4.6820779E+06   -2.2143359E-02    4.6836851E+06
    2.03   900.000   -2.135E+02    4.7850398E+06   -1.1521080E+04   -1.1460439E-02    4.7808224E+06   -2.2687056E-02    4.7817482E+06
    2.04   900.000   -2.143E+02    4.8860681E+06   -1.1443015E+04   -1.3128866E-02    4.8842316E+06   -2.3133345E-02    4.8843831E+06
    2.05   900.000   -2.151E+02    4.9917996E+06   -1.1332212E+04   -1.4831878E-02    4.9924464E+06   -2.3464171E-02    4.9917433E+06
    2.06   900.000   -2.159E+02    5.1023269E+06   -1.1195044E+04   -1.6552641E-02    5.1055418E+06   -2.3663521E-02    5.1039202E+06
    2.07   900.000   -2.167E+02    5.2176548E+06   -1.1037845E+04   -1.8274062E-02    5.2235057E+06   -2.3717605E-02    5.2209214E+06
    2.08   900.000   -2.174E+02    5.3376826E+06   -1.0866335E+04   -1.9978936E-02    5.3462212E+06   -2.3614917E-02    5.3426518E+06
    2.09   900.000   -2.182E+02    5.4621913E+06   -1.0685034E+04   -2.1650167E-02    5.4734525E+06   -2.3346213E-02    5.4688991E+06
    2.10   900.000   -2.190E+02    5.5908379E+06   -1.0496715E+04   -2.3271113E-02    5.6048390E+06   -2.2904468E-02    5.5993271E+06
    2.11   900.000   -2.198E+02    5.7231585E+06   -1.0302002E+04   -2.4826113E-02    5.7398964E+06   -2.2284849E-02    5.7334758E+06
    2.12   900.000   -2.206E+02    5.8585793E+06   -1.0099152E+04   -2.6301163E-02    5.8780277E+06   -2.1484719E-02    5.8707719E+06
    2.13   900.000   -2.214E+02    5.9964367E+06   -9.8841008E+03   -2.7684682E-02    6.0185425E+06   -2.0503689E-02    6.0105469E+06
    2.14   900.000   -2.221E+02    6.1360048E+06   -9.6507853E+03   -2.8968266E-02    6.1606842E+06   -1.9343702E-02    6.1520639E+06
    2.15   900.000   -2.229E+02    6.2765279E+06   -9.3917410E+03   -3.0147320E-02    6.3036629E+06   -1.8009124E-02    6.2945494E+06
    2.16   900.000   -2.237E+02    6.4172558E+06   -9.0989157E+03   -3.1221436E-02    6.4466912E+06   -1.6506824E-02    6.4372288E+06
    2.17   900.000   -2.245E+02    6.5574797E+06   -8.7646179E+03   -3.2194440E-02    6.5890208E+06   -1.4846216E-02    6.5793628E+06
    2.18   900.000   -2.252E+02    6.6965644E+06   -8.3824903E+03   -3.3074052E-02    6.7299764E+06   -1.3039270E-02    6.7202805E+06
    2.19   900.000   -2.260E+02    6.8339759E+06   -7.9483907E+03   -3.3871166E-02    6.8689842E+06   -1.1100474E-02    6.8594089E+06
    2.20   900.000   -2.268E+02    6.9693003E+06   -7.4610693E+03   -3.4598820E-02    7.0055927E+06   -9.0467806E-03    6.9962930E+06
    2.21   900.000   -2.275E+02    7.1022547E+06   -6.9225576E+03   -3.5270945E-02    7.1394840E+06   -6.8975190E-03    7.1306090E+06
    2.22   900.000   -2.283E+02    7.2326869E+06   -6.3382187E+03   -3.5901037E-02    7.2704755E+06   -4.6742981E-03    7.2621650E+06
    2.23   900.000   -2.290E+02    7.3605647E+06   -5.7164446E+03   -3.6500896E-02    7.3985096E+06   -2.4008747E-03    7.3908930E+06
    2.24   900.000   -2.298E+02    7.4859561E+06   -5.0680337E+03   -3.7079547E-02    7.5236350E+06   -1.0297122E-04    7.5168292E+06
    2.25   900.000   -2.305E+02    7.6090004E+06   -4.4053116E+03   -3.7642456E-02    7.6459776E+06    2.1919890E-03    7.6400869E+06
    2.26   900.000   -2.313E+02    7.7298733E+06   -3.7410892E+03   -3.8191087E-02    7.7657069E+06    4.4552592E-03    7.7608220E+06
    2.27   900.000   -2.320E+02    7.8487479E+06   -3.0875633E+03   -3.8722832E-02    7.8829975E+06    6.6572823E-03    7.8791947E+06
    2.28   900.000   -2.327E+02    7.9657567E+06   -2.4552709E+03   -3.9231273E-02    7.9979910E+06    8.7683468E-03    7.9953318E+06
    2.29   900.000   -2.334E+02    8.0809554E+06   -1.8521918E+03   -3.9706741E-02    8.1107606E+06    1.0759374E-02    8.1092905E+06
    2.30   900.000   -2.342E+02    8.1942937E+06   -1.2830782E+03   -4.0137084E-02    8.2212827E+06    1.2602803E-02    8.2210296E+06
    2.31   900.000   -2.349E+02    8.3055952E+06   -7.4905626E+02   -4.0508570E-02    8.3294161E+06    1.4273531E-02    8.3303892E+06
    2.32   900.000   -2.356E+02    8.4145486E+06   -2.4751759E+02   -4.0806835E-02    8.4348933E+06    1.5749845E-02    8.4370813E+06
    2.33   900.000   -2.363E+02    8.5207104E+06    2.2771250E+02   -4.1017798E-02    8.5373220E+06    1.7014298E-02    8.5406920E+06
    2.34   900.000   -2.370E+02    8.6235204E+06    6.8596626E+02   -4.1128477E-02    8.6361990E+06    1.8054462E-02    8.6406957E+06
    2.35   900.000   -2.377E+02    8.7223274E+06    1.1391360E+03   -4.1127652E-02    8.7309338E+06    1.8863516E-02    8.7364798E+06
    2.36   900.000   -2.384E+02    8.8164240E+06    1.6009474E+03   -4.1006330E-02    8.8208809E+06    1.9440621E-02    8.8273780E+06
    2.37   900.000   -2.391E+02    8.9050884E+06    2.0861608E+03   -4.0757991E-02    8.9053785E+06    1.9791054E-02    8.9127100E+06
    2.38   900.000   -2.398E+02    8.9876289E+06    2.6097539E+03   -4.0378604E-02    8.9837905E+06    1.9926081E-02    8.9918247E+06
    2.39   900.000   -2.405E+02    9.0634293E+06    3.1861239E+03   -3.9866419E-02    9.0555496E+06    1.9862562E-02    9.0641442E+06
    2.40   900.000   -2.412E+02    9.1319913E+06    3.8283405E+03   -3.9221575E-02    9.1201985E+06    1.9622285E-02    9.1292056E+06
    2.41   900.000   -2.419E+02    9.1929731E+06    4.5474702E+03   -3.8445563E-02    9.1774272E+06    1.9231073E-02    9.1866980E+06
    2.42   900.000   -2.426E+02    9.2462184E+06    5.3519926E+03   -3.7540631E-02    9.2271030E+06    1.8717674E-02    9.2364923E+06
    2.43   900.000   -2.433E+02    9.2917778E+06    6.2473278E+03   -3.6509200E-02    9.2692924E+06    1.8112505E-02    9.2786626E+06
    2.44   900.000   -2.440E+02    9.3299182E+06    7.2355036E+03   -3.5353407E-02    9.3042725E+06    1.7446286E-02    9.3134959E+06
    2.45   900.000   -2.447E+02    9.3611204E+06    8.3149946E+03   -3.4074856E-02    9.3325306E+06    1.6748627E-02    9.3414907E+06
    2.46   900.000   -2.454E+02    9.3860637E+06    9.4807638E+03   -3.2674647E-02    9.3547511E+06    1.6046647E-02    9.3633429E+06
    2.47   900.000   -2.461E+02    9.4055995E+06    1.0724528E+04   -3.1153748E-02    9.3717906E+06    1.5363670E-02    9.3799189E+06
    2.48   900.000   -2.468E+02    9.4207131E+06    1.2035250E+04   -2.9513694E-02    9.3846412E+06    1.4718072E-02    9.3922182E+06
    2.49   900.000   -2.475E+02    9.4324768E+06    1.3399817E+04   -2.7757577E-02    9.3943840E+06    1.4122358E-02    9.4013268E+06
    2.50   900.000   -2.481E+02    9.4419982E+06    1.4803860E+04   -2.5891239E-02    9.4021374E+06    1.3582508E-02    9.4083642E+06
    2.51   900.000   -2.488E+02    9.4503658E+06    1.6232606E+04   -2.3924520E-02    9.4090018E+06    1.3097669E-02    9.4144285E+06
    2.52   900.000   -2.495E+02    9.4585968E+06    1.7671668E+04   -2.1872413E-02    9.4160061E+06    1.2660211E-02    9.4205429E+06
    2.53   900.000   -2.501E+02    9.4675898E+06    1.9107664E+04   -1.9755940E-02    9.4240589E+06    1.2256180E-02    9.4276076E+06
    2.54   900.000   -2.508E+02    9.4780866E+06    2.0528592E+04   -1.7602594E-02    9.4339085E+06    1.1866130E-02    9.4363599E+06
    2.55   900.000   -2.514E+02    9.4906428E+06    2.1923908E+04   -1.5446231E-02    9.4461129E+06    1.1466314E-02    9.4473445E+06
    2.56   900.000   -2.521E+02    9.5056101E+06    2.3284318E+04   -1.3326322E-02    9.4610205E+06    1.1030171E-02    9.4608952E+06
    2.57   900.000   -2.527E+02    9.5231285E+06    2.4601329E+04   -1.1286589E-02    9.4787625E+06    1.0530025E-02    9.4771274E+06
    2.58   900.000   -2.534E+02    9.5431275E+06    2.5866648E+04   -9.3730699E-03    9.4992544E+06    9.9389163E-03    9.4959403E+06
    2.59   900.000   -2.540E+02    9.5653353E+06    2.7071548E+04   -7.6317676E-03    9.5222057E+06    9.2324497E-03    9.5170267E+06
    2.60   900.000   -2.546E+02    9.5892934E+06    2.8206317E+04   -6.1060604E-03    9.5471357E+06    8.3905466E-03    9.5398891E+06
    2.61   900.000   -2.552E+02    9.6143751E+06    2.9259907E+04   -4.8340998E-03    9.5733928E+06    7.3989955E-03    9.5638599E+06
    2.62   900.000   -2.558E+02    9.6398068E+06    3.0219877E+04   -3.8464223E-03    9.6001776E+06    6.2506902E-03    9.5881242E+06
    2.63   900.000   -2.564E+02    9.6646918E+06    3.1072664E+04   -3.1639806E-03    9.6265668E+06    4.9464627E-03    9.6117437E+06
    2.64   900.000   -2.570E+02    9.6880353E+06    3.1804200E+04   -2.7967575E-03    9.6515389E+06    3.4954340E-03    9.6336830E+06
    2.65   900.000   -2.576E+02    9.7087714E+06    3.2400821E+04   -2.7430652E-03    9.6740018E+06    1.9148361E-03    9.6528368E+06
    2.66   900.000   -2.582E+02    9.7257924E+06    3.2850374E+04   -2.9895633E-03    9.6928214E+06    2.2929202E-04    9.6680586E+06
    2.67   900.000   -2.588E+02    9.7379802E+06    3.3143405E+04   -3.5119639E-03    9.7068535E+06   -1.5304135E-03    9.6781923E+06
    2.68   900.000   -2.593E+02    9.7442406E+06    3.3274282E+04   -4.2763334E-03    9.7149774E+06   -3.3289974E-03    9.6821061E+06
    2.69   900.000   -2.599E+02    9.7435394E+06    3.3242129E+04   -5.2408628E-03    9.7161315E+06   -5.1286580E-03    9.6787287E+06
    2.70   900.000   -2.604E+02    9.7349401E+06    3.3051442E+04   -6.3579575E-03    9.7093517E+06   -6.8912174E-03    9.6670873E+06
    2.71   900.000   -2.610E+02    9.7176417E+06    3.2712326E+04   -7.5764942E-03    9.6938085E+06   -8.5802571E-03    9.6463457E+06
    2.72   900.000   -2.615E+02    9.6910144E+06    3.2240315E+04   -8.8441091E-03    9.6688433E+06   -1.0163074E-02    9.6158412E+06
    2.73   900.000   -2.620E+02    9.6546316E+06    3.1655786E+04   -1.0109403E-02    9.6340008E+06   -1.1612302E-02    9.5751177E+06
    2.74   900.000   -2.625E+02    9.6082950E+06    3.0983026E+04   -1.1323977E-02    9.5890549E+06   -1.2907075E-02    9.5239528E+06
    2.75   900.000   -2.630E+02    9.5520523E+06    3.0249019E+04   -1.2444241E-02    9.5340266E+06   -1.4033656E-02    9.4623760E+06
    2.76   900.000   -2.635E+02    9.4862022E+06    2.9482051E+04   -1.3432946E-02    9.4691905E+06   -1.4985513E-02    9.3906766E+06
    2.77   900.000   -2.640E+02    9.4112897E+06    2.8710226E+04   -1.4260417E-02    9.3950702E+06   -1.5762854E-02    9.3094001E+06
    2.78   900.000   -2.645E+02    9.3280866E+06    2.7959993E+04   -1.4905454E-02    9.3124204E+06   -1.6371715E-02    9.2193306E+06
    2.79   900.000   -2.649E+02    9.2375616E+06    2.7254755E+04   -1.5355871E-02    9.2221969E+06   -1.6822704E-02    9.1214621E+06
    2.80   900.000   -2.654E+02    9.1408387E+06    2.6613656E+04   -1.5608656E-02    9.1255164E+06   -1.7129532E-02    9.0169578E+06
    2.81   900.000   -2.658E+02    9.0391480E+06    2.6050607E+04   -1.5669709E-02    9.0236078E+06   -1.7307493E-02    8.9071025E+06
    2.82   900.000   -2.663E+02    8.9337726E+06    2.5573617E+04   -1.5553167E-02    8.9177590E+06   -1.7372036E-02    8.7932482E+06
    2.83   900.000   -2.667E+02    8.8259944E+06    2.5184471E+04   -1.5280313E-02    8.8092634E+06   -1.7337527E-02    8.6767608E+06
    2.84   900.000   -2.672E+02    8.7170447E+06    2.4878796E+04   -1.4878121E-02    8.6993696E+06   -1.7216319E-02    8.5589685E+06
    2.85   900.000   -2.676E+02    8.6080617E+06    2.4646535E+04   -1.4377500E-02    8.5892392E+06   -1.7018161E-02    8.4411183E+06
    2.86   900.000   -2.680E+02    8.5000592E+06    2.4472797E+04   -1.3811369E-02    8.4799142E+06   -1.6749944E-02    8.3243419E+06
    2.87   900.000   -2.684E+02    8.3939075E+06    2.4339081E+04   -1.3212675E-02    8.3722979E+06   -1.6415776E-02    8.2096345E+06
    2.88   900.000   -2.688E+02    8.2903285E+06    2.4224783E+04   -1.2612520E-02    8.2671479E+06   -1.6017301E-02    8.0978452E+06
    2.89   900.000   -2.692E+02    8.1899020E+06    2.4108913E+04   -1.2038535E-02    8.1650823E+06   -1.5554202E-02    7.9896809E+06
    2.90   900.000   -2.696E+02    8.0930840E+06    2.3971881E+04   -1.1513625E-02    8.0665965E+06   -1.5024808E-02    7.8857202E+06
    2.91   900.000   -2.700E+02    8.0002330E+06    2.3797213E+04   -1.1055153E-02    7.9720880E+06   -1.4426725E-02    7.7864350E+06
    2.92   900.000   -2.704E+02    7.9116402E+06    2.3573024E+04   -1.0674615E-02    7.8818858E+06   -1.3757444E-02    7.6922173E+06
    2.93   900.000   -2.708E+02    7.8275613E+06    2.3293061E+04   -1.0377753E-02    7.7962806E+06   -1.3014879E-02    7.6034074E+06
    2.94   900.000   -2.712E+02    7.7482455E+06    2.2957183E+04   -1.0165060E-02    7.7155525E+06   -1.2197809E-02    7.5203194E+06
    2.95   900.000   -2.716E+02    7.6739583E+06    2.2571165E+04   -1.0032543E-02    7.6399925E+06   -1.1306229E-02    7.4432627E+06
    2.96   900.000   -2.720E+02    7.6049957E+06    2.2145811E+04   -9.9726380E-03    7.5699154E+06   -1.0341605E-02    7.3725547E+06
    2.97   900.000   -2.724E+02    7.5416887E+06    2.1695440E+04   -9.9751370E-03    7.5056635E+06   -9.3070449E-03    7.3085253E+06
    2.98   900.000   -2.728E+02    7.4843968E+06    2.1235915E+04   -1.0028039E-02    7.4475996E+06   -8.2074001E-03    7.2515120E+06
    2.99   900.000   -2.732E+02    7.4334925E+06    2.0782458E+04   -1.0118254E-02    7.3960914E+06   -7.0493164E-03    7.2018458E+06
    3.00   900.000   -2.736E+02    7.3893376E+06    2.0347525E+04   -1.0232140E-02    7.3514885E+06   -5.8412281E-03    7.1598305E+06
    3.01   900.000   -2.739E+02    7.3522564E+06    1.9939038E+04   -1.0355881E-02    7.3140961E+06   -4.5933060E-03    7.1257188E+06
    3.02   900.000   -2.743E+02    7.3225072E+06    1.9559177E+04   -1.0475754E-02    7.2841489E+06   -3.3173509E-03    7.0996868E+06
    3.03   900.000   -2.747E+02    7.3002586E+06    1.9203907E+04   -1.0578326E-02    7.2617882E+06   -2.0266267E-03    7.0818135E+06
    3.04   900.000   -2.751E+02    7.2855728E+06    1.8863266E+04   -1.0650642E-02    7.2470478E+06   -7.3562863E-04    7.0720671E+06
    3.05   900.000   -2.755E+02    7.2784008E+06    1.8522351E+04   -1.0680426E-02    7.2398502E+06    5.4021185E-04    7.0703024E+06
    3.06   900.000   -2.758E+02    7.2785890E+06    1.8162880E+04   -1.0656316E-02    7.2400155E+06    1.7848760E-03    7.0762700E+06
    3.07   900.000   -2.762E+02    7.2859002E+06    1.7765094E+04   -1.0568132E-02    7.2472826E+06    2.9821383E-03    7.0896395E+06
    3.08   900.000   -2.766E+02    7.3000450E+06    1.7309796E+04   -1.0407149E-02    7.2613419E+06    4.1159511E-03    7.1100318E+06
    3.09   900.000   -2.770E+02    7.3207212E+06    1.6780295E+04   -1.0166366E-02    7.2818750E+06    5.1707994E-03    7.1370608E+06
    3.10   900.000   -2.773E+02    7.3476562E+06    1.6164075E+04   -9.8407340E-03    7.3085965E+06    6.1319973E-03    7.1703763E+06
    3.11   900.000   -2.777E+02    7.3806457E+06    1.5454038E+04   -9.4273256E-03    7.3412935E+06    6.9859047E-03    7.2097043E+06
    3.12   900.000   -2.781E+02    7.4195834E+06    1.4649233E+04   -8.9254422E-03    7.3798547E+06    7.7200589E-03    7.2548778E+06
    3.13   900.000   -2.785E+02    7.4644767E+06    1.3755039E+04   -8.3366364E-03    7.4242864E+06    8.3232314E-03    7.3058536E+06
    3.14   900.000   -2.789E+02    7.5154439E+06    1.2782786E+04   -7.6646489E-03    7.4747100E+06    8.7854342E-03    7.3627107E+06
    3.15   900.000   -2.792E+02    7.5726922E+06    1.1748874E+04   -6.9152512E-03    7.5313400E+06    9.0979096E-03    7.4256294E+06
    3.16   900.000   -2.796E+02    7.6364767E+06    1.0673456E+04   -6.0959875E-03    7.5944441E+06    9.2531368E-03    7.4948509E+06
    3.17   900.000   -2.800E+02    7.7070445E+06    9.5787950E+03   -5.2158112E-03    7.6642861E+06    9.2448845E-03    7.5706218E+06
    3.18   900.000   -2.804E+02    7.7845663E+06    8.4874432E+03   -4.2846180E-03    7.7410589E+06    9.0683240E-03    7.6531256E+06
    3.19   900.000   -2.808E+02    7.8690648E+06    7.4204095E+03   -3.3126856E-03    7.8248113E+06    8.7202035E-03    7.7424098E+06
    3.20   900.000   -2.812E+02    7.9603428E+06    6.3954847E+03   -2.3100433E-03    7.9153763E+06    8.1990713E-03    7.8383130E+06
    3.21   900.000   -2.816E+02    8.0579205E+06    5.4258969E+03   -1.2858095E-03    8.0123062E+06    7.5055235E-03    7.9403990E+06
    3.22   900.000   -2.820E+02    8.1609854E+06    4.5194306E+03   -2.4754788E-04    8.1148218E+06    6.6424483E-03    8.0479043E+06
    3.23   900.000   -2.824E+02    8.2683600E+06    3.6780935E+03    7.9929470E-04    8.2217783E+06    5.6152402E-03    8.1597027E+06
    3.24   900.000   -2.828E+02    8.3784907E+06    2.8983532E+03    1.8518003E-03    8.3316529E+06    4.4319590E-03    8.2742910E+06
    3.25   900.000   -2.832E+02    8.4894608E+06    2.1718978E+03    2.9097789E-03    8.4425556E+06    3.1034202E-03    8.3897986E+06
    3.26   900.000   -2.836E+02    8.5990257E+06    1.4868179E+03    3.9757054E-03    8.5522642E+06    1.6432065E-03    8.5040212E+06
    3.27   900.000   -2.840E+02    8.7046734E+06    8.2906517E+02    5.0543712E-03    8.6582825E+06    6.7600538E-05    8.6144783E+06
    3.28   900.000   -2.845E+02    8.8037052E+06    1.8401915E+02    6.1522662E-03    8.7579210E+06   -1.6045582E-03    8.7184936E+06
    3.29   900.000   -2.849E+02    8.8933364E+06   -4.6200466E+02    7.2767431E-03    8.8483965E+06   -3.3520818E-03    8.8132943E+06
    3.30   900.000   -2.853E+02    8.9708105E+06   -1.1204583E+03    8.4350559E-03    8.9269459E+06   -5.1516970E-03    8.8961257E+06
    3.31   900.000   -2.858E+02    9.0335239E+06   -1.7995966E+03    9.6333909E-03    8.9909509E+06   -6.9783515E-03    8.9643750E+06
    3.32   900.000   -2.862E+02    9.0791518E+06   -2.5039247E+03    1.0876014E-02    9.0380637E+06   -8.8055485E-03    9.0156979E+06
    3.33   900.000   -2.867E+02    9.1057696E+06   -3.2340928E+03    1.2164652E-02    9.0663293E+06   -1.0605704E-02    9.0481396E+06
    3.34   900.000   -2.871E+02    9.1119601E+06   -3.9872262E+03    1.3498182E-02    9.0742935E+06   -1.2350520E-02    9.0602426E+06
    3.35   900.000   -2.876E+02    9.0968993E+06   -4.7576302E+03    1.4872673E-02    9.0610898E+06   -1.4011380E-02    9.0511324E+06
    3.36   900.000   -2.880E+02    9.0604126E+06   -5.5377699E+03    1.6281750E-02    9.0264975E+06   -1.5559767E-02    9.0205751E+06
    3.37   900.000   -2.885E+02    9.0029967E+06   -6.3193904E+03    1.7717225E-02    8.9709655E+06   -1.6967735E-02    8.9690002E+06
    3.38   900.000   -2.890E+02    8.9258042E+06   -7.0946271E+03    1.9169875E-02    8.8955988E+06   -1.8208423E-02    8.8974879E+06
    3.39   900.000   -2.894E+02    8.8305916E+06   -7.8569540E+03    2.0630268E-02    8.8021085E+06   -1.9256647E-02    8.8077192E+06
    3.40   900.000   -2.899E+02    8.7196347E+06   -8.6018412E+03    2.2089503E-02    8.6927292E+06   -2.0089548E-02    8.7018950E+06
    3.41   900.000   -2.904E+02    8.5956185E+06   -9.3270383E+03    2.3539769E-02    8.5701100E+06   -2.0687304E-02    8.5826293E+06
    3.42   900.000   -2.909E+02    8.4615109E+06   -1.0032454E+04    2.4974682E-02    8.4371894E+06   -2.1033857E-02    8.4528256E+06
    3.43   900.000   -2.913E+02    8.3204299E+06   -1.0719671E+04    2.6389360E-02    8.2970629E+06   -2.1117627E-02    8.3155475E+06
    3.44   900.000   -2.918E+02    8.1755157E+06   -1.1391188E+04    2.7780256E-02    8.1528551E+06   -2.0932143E-02    8.1738917E+06
    3.45   900.000   -2.923E+02    8.0298144E+06   -1.2049532E+04    2.9144816E-02    8.0076034E+06   -2.0476538E-02    8.0308737E+06
    3.46   900.000   -2.928E+02    7.8861826E+06   -1.2696381E+04    3.0480993E-02    7.8641616E+06   -1.9755845E-02    7.8893313E+06
    3.47   900.000   -2.933E+02    7.7472126E+06   -1.3331847E+04    3.1786715E-02    7.7251252E+06   -1.8781028E-02    7.7518504E+06
    3.48   900.000   -2.938E+02    7.6151837E+06   -1.3954029E+04    3.3059347E-02    7.5927811E+06   -1.7568733E-02    7.6207135E+06
    3.49   900.000   -2.942E+02    7.4920337E+06   -1.4558867E+04    3.4295218E-02    7.4690800E+06   -1.6140732E-02    7.4978709E+06
    3.50   900.000   -2.947E+02    7.3793507E+06   -1.5140326E+04    3.5489226E-02    7.3556266E+06   -1.4523089E-02    7.3849300E+06
    3.51   900.000   -2.952E+02    7.2783793E+06   -1.5690820E+04    3.6634564E-02    7.2536861E+06   -1.2745091E-02    7.2831598E+06
    3.52   900.000   -2.957E+02    7.1900366E+06   -1.6201818E+04    3.7722577E-02    7.1642003E+06   -1.0838011E-02    7.1935065E+06
    3.53   900.000   -2.963E+02    7.1149358E+06   -1.6664505E+04    3.8742751E-02    7.0878102E+06   -8.8338083E-03    7.1166148E+06
    3.54   900.000   -2.968E+02    7.0534110E+06   -1.7070405E+04    3.9682859E-02    7.0248813E+06   -6.7638322E-03    7.0528529E+06
    3.55   900.000   -2.973E+02    7.0055435E+06   -1.7411904E+04    4.0529245E-02    6.9755287E+06   -4.6576494E-03    7.0023373E+06
    3.56   900.000   -2.978E+02    6.9711854E+06   -1.7682604E+04    4.1267275E-02    6.9396406E+06   -2.5420484E-03    6.9649573E+06
    3.57   900.000   -2.983E+02    6.9499817E+06   -1.7877520E+04    4.1881925E-02    6.9168993E+06   -4.4028738E-04    6.9403958E+06
    3.58   900.000   -2.989E+02    6.9413887E+06   -1.7993138E+04    4.2358502E-02    6.9067987E+06    1.6283895E-03    6.9281488E+06
    3.59   900.000   -2.994E+02    6.9446906E+06   -1.8027357E+04    4.2683468E-02    6.9086602E+06    3.6489594E-03    6.9275422E+06
    3.60   900.000   -2.999E+02    6.9590153E+06   -1.7979394E+04    4.2845312E-02    6.9216471E+06    5.6105711E-03    6.9377473E+06
    3.61   900.000   -3.005E+02    6.9833489E+06   -1.7849662E+04    4.2835427E-02    6.9447790E+06    7.5062720E-03    6.9577966E+06
    3.62   900.000   -3.010E+02    7.0165531E+06   -1.7639681E+04    4.2648908E-02    6.9769477E+06    9.3325599E-03    6.9866009E+06
    3.63   900.000   -3.015E+02    7.0573843E+06   -1.7352030E+04    4.2285225E-02    7.0169366E+06    1.1088814E-02    7.0229686E+06
    3.64   900.000   -3.021E+02    7.1045180E+06   -1.6990333E+04    4.1748681E-02    7.0634442E+06    1.2776665E-02    7.0656295E+06
    3.65   900.000   -3.026E+02    7.1565774E+06   -1.6559277E+04    4.1048627E-02    7.1151124E+06    1.4399343E-02    7.1132622E+06
    3.66   900.000   -3.032E+02    7.2121667E+06   -1.6064625E+04    4.0199386E-02    7.1705603E+06    1.5961069E-02    7.1645260E+06
    3.67   900.000   -3.037E+02    7.2699094E+06   -1.5513220E+04    3.9219900E-02    7.2284211E+06    1.7466501E-02    7.2180969E+06
    3.68   900.000   -3.042E+02    7.3284877E+06   -1.4912939E+04    3.8133083E-02    7.2873819E+06    1.8920262E-02    7.2727045E+06
    3.69   900.000   -3.048E+02    7.3866831E+06   -1.4272594E+04    3.6964957E-02    7.3462233E+06    2.0326552E-02    7.3271701E+06
    3.70   900.000   -3.053E+02    7.4434126E+06   -1.3601784E+04    3.5743580E-02    7.4038557E+06    2.1688836E-02    7.3804414E+06
    3.71   900.000   -3.058E+02    7.4977601E+06   -1.2910677E+04    3.4497867E-02    7.4593496E+06    2.3009575E-02    7.4316221E+06
    3.72   900.000   -3.064E+02    7.5489978E+06   -1.2209763E+04    3.3256337E-02    7.5119576E+06    2.4289993E-02    7.4799934E+06
    3.73   900.000   -3.069E+02    7.5965975E+06   -1.1509562E+04    3.2045872E-02    7.5611252E+06    2.5529833E-02    7.5250263E+06
    3.74   900.000   -3.074E+02    7.6402294E+06   -1.0820324E+04    3.0890538E-02    7.6064907E+06    2.6727107E-02    7.5663821E+06
    3.75   900.000   -3.079E+02    7.6797495E+06   -1.0151727E+04    2.9810527E-02    7.6478731E+06    2.7877822E-02    7.6039028E+06
    3.76   900.000   -3.084E+02    7.7151766E+06   -9.5126069E+03    2.8821275E-02    7.6852506E+06    2.8975717E-02    7.6375912E+06
    3.77   900.000   -3.089E+02    7.7466611E+06   -8.9107307E+03    2.7932801E-02    7.7187316E+06    3.0012027E-02    7.6675830E+06
    3.78   900.000   -3.094E+02    7.7744495E+06   -8.3526520E+03    2.7149298E-02    7.7485200E+06    3.0975343E-02    7.6941138E+06
    3.79   900.000   -3.099E+02    7.7988477E+06   -7.8436698E+03    2.6469006E-02    7.7748808E+06    3.1851610E-02    7.7174843E+06
    3.80   900.000   -3.103E+02    7.8201854E+06   -7.3879043E+03    2.5884393E-02    7.7981063E+06    3.2624313E-02    7.7380255E+06
    3.81   900.000   -3.108E+02    7.8387867E+06   -6.9884903E+03    2.5382619E-02    7.8184875E+06    3.3274888E-02    7.7560693E+06
    3.82   900.000   -3.112E+02    7.8549466E+06   -6.6478668E+03    2.4946292E-02    7.8362923E+06    3.3783360E-02    7.7719240E+06
    3.83   900.000   -3.117E+02    7.8689169E+06   -6.3681230E+03    2.4554453E-02    7.8517512E+06    3.4129195E-02    7.7858578E+06
    3.84   900.000   -3.121E+02    7.8808993E+06   -6.1513470E+03    2.4183751E-02    7.8650518E+06    3.4292320E-02    7.7980903E+06
    3.85   900.000   -3.125E+02    7.8910480E+06   -5.9999190E+03    2.3809728E-02    7.8763403E+06    3.4254240E-02    7.8087926E+06
    3.86   900.000   -3.130E+02    7.8994780E+06   -5.9166987E+03    2.3408125E-02    7.8857297E+06    3.3999177E-02    7.8180929E+06
    3.87   900.000   -3.134E+02    7.9062780E+06   -5.9050728E+03    2.2956119E-02    7.8933123E+06    3.3515134E-02    7.8260882E+06
    3.88   900.000   -3.138E+02    7.9115260E+06   -5.9688499E+03    2.2433413E-02    7.8991741E+06    3.2794829E-02    7.8328581E+06
    3.89   900.000   -3.142E+02    7.9153036E+06   -6.1120129E+03    2.1823097E-02    7.9034081E+06    3.1836396E-02    7.8384792E+06
    3.90   900.000   -3.146E+02    7.9177085E+06   -6.3383593E+03    2.1112233E-02    7.9061251E+06    3.0643845E-02    7.8430370E+06
    3.91   900.000   -3.149E+02    7.9188601E+06   -6.6510715E+03    2.0292157E-02    7.9074587E+06    2.9227222E-02    7.8466336E+06
    3.92   900.000   -3.153E+02    7.9189002E+06   -7.0522697E+03    1.9358498E-02    7.9075636E+06    2.7602485E-02    7.8493889E+06
    3.93   900.000   -3.157E+02    7.9179850E+06   -7.5425926E+03    1.8310972E-02    7.9066070E+06    2.5791103E-02    7.8514353E+06
    3.94   900.000   -3.160E+02    7.9162709E+06   -8.1208503E+03    1.7152980E-02    7.9047532E+06    2.3819408E-02    7.8529043E+06
    3.95   900.000   -3.164E+02    7.9138939E+06   -8.7837756E+03    1.5891108E-02    7.9021423E+06    2.1717749E-02    7.8539088E+06
    3.96   900.000   -3.167E+02    7.9109467E+06   -9.5258850E+03    1.4534554E-02    7.8988665E+06    1.9519482E-02    7.8545199E+06
    3.97   900.000   -3.171E+02    7.9074538E+06   -1.0339445E+04    1.3094543E-02    7.8949462E+06    1.7259857E-02    7.8547431E+06
    3.98   900.000   -3.174E+02    7.9033495E+06   -1.1214520E+04    1.1583755E-02    7.8903086E+06    1.4974864E-02    7.8544960E+06
    3.99   900.000   -3.177E+02    7.8984613E+06   -1.2139080E+04    1.0015771E-02    7.8847719E+06    1.2700076E-02    7.8535906E+06
    4.00   900.000   -3.180E+02    7.8924996E+06   -1.3099122E+04    8.4045550E-03    7.8780375E+06    1.0469582E-02    7.8517218E+06
    4.01   900.000   -3.183E+02    7.8850572E+06   -1.4078788E+04    6.7639689E-03    7.8696906E+06    8.3150545E-03    7.8484658E+06
    4.02   900.000   -3.186E+02    7.8756173E+06   -1.5060459E+04    5.1073438E-03    7.8592113E+06    6.2650148E-03    7.8432868E+06
    4.03   900.000   -3.189E+02    7.8635708E+06   -1.6024823E+04    3.4471253E-03    7.8459931E+06    4.3443510E-03    7.8355535E+06
    4.04   900.000   -3.192E+02    7.8482412E+06   -1.6950939E+04    1.7946208E-03    7.8293697E+06    2.5741037E-03    7.8245639E+06
    4.05   900.000   -3.195E+02    7.8289142E+06   -1.7816346E+04    1.5987025E-04    7.8086462E+06    9.7151997E-04    7.8095753E+06
    4.06   900.000   -3.198E+02    7.8048716E+06   -1.8597249E+04   -1.4483484E-03    7.7831329E+06   -4.4966354E-04    7.7898393E+06
    4.07   900.000   -3.201E+02    7.7754247E+06   -1.9268847E+04   -3.0223930E-03    7.7521793E+06   -1.6787716E-03    7.7646373E+06
    4.08   900.000   -3.204E+02    7.7399472E+06   -1.9805839E+04   -4.5555435E-03    7.7152055E+06   -2.7076626E-03    7.7333147E+06
    4.09   900.000   -3.206E+02    7.6979046E+06   -2.0183138E+04   -6.0417545E-03    7.6717302E+06   -3.5302138E-03    7.6953133E+06
    4.10   900.000   -3.209E+02    7.6488804E+06   -2.0376768E+04   -7.4754371E-03    7.6213942E+06   -4.1419078E-03    7.6501976E+06
    4.11   900.000   -3.212E+02    7.5925974E+06   -2.0364921E+04   -8.8513289E-03    7.5639782E+06   -4.5395854E-03    7.5976786E+06
    4.12   900.000   -3.214E+02    7.5289349E+06   -2.0129088E+04   -1.0164492E-02    7.4994178E+06   -4.7214008E-03    7.5376299E+06
    4.13   900.000   -3.217E+02    7.4579427E+06   -1.9655188E+04   -1.1410449E-02    7.4278118E+06   -4.6869819E-03    7.4701011E+06
    4.14   900.000   -3.219E+02    7.3798492E+06   -1.8934586E+04   -1.2585444E-02    7.3494290E+06   -4.4377575E-03    7.3953241E+06
    4.15   900.000   -3.222E+02    7.2950668E+06   -1.7964908E+04   -1.3686758E-02    7.2647084E+06   -3.9773887E-03    7.3137152E+06
    4.16   900.000   -3.224E+02    7.2041902E+06   -1.6750576E+04   -1.4713040E-02    7.1742570E+06   -3.3122176E-03    7.2258715E+06
    4.17   900.000   -3.227E+02    7.1079897E+06   -1.5303011E+04   -1.5664532E-02    7.0788406E+06   -2.4516413E-03    7.1325602E+06
    4.18   900.000   -3.229E+02    7.0073969E+06   -1.3640469E+04   -1.6543160E-02    6.9793699E+06   -1.4083273E-03    7.0347024E+06
    4.19   900.000   -3.232E+02    6.9034827E+06   -1.1787534E+04   -1.7352419E-02    6.8768797E+06   -1.9820747E-04    6.9333496E+06
    4.20   900.000   -3.234E+02    6.7974292E+06   -9.7742837E+03   -1.8097053E-02    6.7725026E+06    1.1597782E-03    6.8296544E+06
    4.21   900.000   -3.237E+02    6.6904944E+06   -7.6351888E+03   -1.8782556E-02    6.6674369E+06    2.6441800E-03    6.7248367E+06
    4.22   900.000   -3.239E+02    6.5839737E+06   -5.4078044E+03   -1.9414552E-02    6.5629116E+06    4.2317319E-03    6.6201455E+06
    4.23   900.000   -3.242E+02    6.4791592E+06   -3.1313315E+03   -1.9998137E-02    6.4601495E+06    5.8981625E-03    6.5168219E+06
    4.24   900.000   -3.244E+02    6.3772997E+06   -8.4511621E+02   -2.0537276E-02    6.3603310E+06    7.6190311E-03    6.4160616E+06
    4.25   900.000   -3.247E+02    6.2795651E+06    1.4128416E+03   -2.1034313E-02    6.2645608E+06    9.3704926E-03    6.3189827E+06
    4.26   900.000   -3.249E+02    6.1870151E+06    3.6073039E+03   -2.1489668E-02    6.1738403E+06    1.1129912E-02    6.2265983E+06
    4.27   900.000   -3.252E+02    6.1005762E+06    5.7070734E+03   -2.1901728E-02    6.0890450E+06    1.2876274E-02    6.1397966E+06
    4.28   900.000   -3.254E+02    6.0210254E+06    7.6860797E+03   -2.2266935E-02    6.0109104E+06    1.4590371E-02    6.0593278E+06
    4.29   900.000   -3.257E+02    5.9489831E+06    9.5242220E+03   -2.2580037E-02    5.9400243E+06    1.6254774E-02    5.9857992E+06
    4.30   900.000   -3.260E+02    5.8849121E+06    1.1207928E+04   -2.2834460E-02    5.8768267E+06    1.7853639E-02    5.9196764E+06
    4.31   900.000   -3.262E+02    5.8291241E+06    1.2730401E+04   -2.3022765E-02    5.8216156E+06    1.9372383E-02    5.8612912E+06
    4.32   900.000   -3.265E+02    5.7817922E+06    1.4091532E+04   -2.3137136E-02    5.7745587E+06    2.0797320E-02    5.8108535E+06
    4.33   900.000   -3.268E+02    5.7429674E+06    1.5297502E+04   -2.3169875E-02    5.7357099E+06    2.2115292E-02    5.7684682E+06
    4.34   900.000   -3.271E+02    5.7126002E+06    1.6360065E+04   -2.3113883E-02    5.7050301E+06    2.3313357E-02    5.7341551E+06
    4.35   900.000   -3.274E+02    5.6905646E+06    1.7295581E+04   -2.2963100E-02    5.6824106E+06    2.4378575E-02    5.7078710E+06
    4.36   900.000   -3.276E+02    5.6766856E+06    1.8123818E+04   -2.2712900E-02    5.6677000E+06    2.5297909E-02    5.6895342E+06
    4.37   900.000   -3.279E+02    5.6707679E+06    1.8866609E+04   -2.2360422E-02    5.6607319E+06    2.6058249E-02    5.6790491E+06
    4.38   900.000   -3.282E+02    5.6726246E+06    1.9546399E+04   -2.1904849E-02    5.6613530E+06    2.6646564E-02    5.6763319E+06
    4.39   900.000   -3.285E+02    5.6821063E+06    2.0184760E+04   -2.1347610E-02    5.6694509E+06    2.7050146E-02    5.6813348E+06
    4.40   900.000   -3.288E+02    5.6991266E+06    2.0800939E+04   -2.0692527E-02    5.6849784E+06    2.7256932E-02    5.6940679E+06
    4.41   900.000   -3.291E+02    5.7236854E+06    2.1410493E+04   -1.9945898E-02    5.7079755E+06    2.7255866E-02    5.7146188E+06
    4.42   900.000   -3.294E+02    5.7558862E+06    2.2024104E+04   -1.9116533E-02    5.7385855E+06    2.7037256E-02    5.7431670E+06
    4.43   900.000   -3.297E+02    5.7959485E+06    2.2646626E+04   -1.8215745E-02    5.7770665E+06    2.6593109E-02    5.7799939E+06
    4.44   900.000   -3.300E+02    5.8442140E+06    2.3276470E+04   -1.7257283E-02    5.8237959E+06    2.5917416E-02    5.8254881E+06
    4.45   900.000   -3.303E+02    5.9011458E+06    2.3905367E+04   -1.6257210E-02    5.8792699E+06    2.5006380E-02    5.8801441E+06
    4.46   900.000   -3.306E+02    5.9673222E+06    2.4518581E+04   -1.5233696E-02    5.9440958E+06    2.3858602E-02    5.9445563E+06
    4.47   900.000   -3.309E+02    6.0434244E+06    2.5095588E+04   -1.4206691E-02    6.0189797E+06    2.2475234E-02    6.0194079E+06
    4.48   900.000   -3.313E+02    6.1302191E+06    2.5611210E+04   -1.3197465E-02    6.1047087E+06    2.0860122E-02    6.1054550E+06
    4.49   900.000   -3.316E+02    6.2285357E+06    2.6037136E+04   -1.2227979E-02    6.2021281E+06    1.9019953E-02    6.2035062E+06
    4.50   900.000   -3.319E+02    6.3392405E+06    2.6343756E+04   -1.1320086E-02    6.3121152E+06    1.6964404E-02    6.3143986E+06
    4.51   900.000   -3.322E+02    6.4632058E+06    2.6502152E+04   -1.0494598E-02    6.4355489E+06    1.4706293E-02    6.4389700E+06
    4.52   900.000   -3.325E+02    6.6012767E+06    2.6486107E+04   -9.7702322E-03    6.5732764E+06    1.2261689E-02    6.5780285E+06
    4.53   900.000   -3.328E+02    6.7542347E+06    2.6273972E+04   -9.1625376E-03    6.7260768E+06    9.6499579E-03    6.7323185E+06
    4.54   900.000   -3.332E+02    6.9227578E+06    2.5850245E+04   -8.6828663E-03    6.8946227E+06    6.8936970E-03    6.9024839E+06
    4.55   900.000   -3.335E+02    7.1073797E+06    2.5206729E+04   -8.3374865E-03    7.0794387E+06    4.0185344E-03    7.0890300E+06
    4.56   900.000   -3.338E+02    7.3084459E+06    2.4343201E+04   -8.1269216E-03    7.2808600E+06    1.0527660E-03    7.2922813E+06
    4.57   900.000   -3.341E+02    7.5260696E+06    2.3267541E+04   -8.0455826E-03    7.4989883E+06   -1.9731598E-03    7.5123395E+06
    4.58   900.000   -3.345E+02    7.7600863E+06    2.1995335E+04   -8.0817376E-03    7.7336489E+06   -5.0272904E-03    7.7490396E+06
    4.59   900.000   -3.348E+02    8.0100113E+06    2.0549001E+04   -8.2178334E-03    7.9843485E+06   -8.0769061E-03    8.0019072E+06
    4.60   900.000   -3.351E+02    8.2749992E+06    1.8956517E+04   -8.4311599E-03    8.2502373E+06   -1.1089295E-02    8.2701184E+06
    4.61   900.000   -3.355E+02    8.5538104E+06    1.7249875E+04   -8.6948205E-03    8.5300756E+06   -1.4032513E-02    8.5524649E+06
    4.62   900.000   -3.358E+02    8.8447873E+06    1.5463363E+04   -8.9789569E-03    8.8222107E+06   -1.6876075E-02    8.8473280E+06
    4.63   900.000   -3.362E+02    9.1458434E+06    1.3631807E+04   -9.2521644E-03    9.1245659E+06   -1.9591562E-02    9.1526651E+06
    4.64   900.000   -3.365E+02    9.4544701E+06    1.1788873E+04   -9.4830206E-03    9.4346459E+06   -2.2153111E-02    9.4660126E+06
    4.65   900.000   -3.369E+02    9.7677633E+06    9.9655398E+03   -9.6416487E-03    9.7495616E+06   -2.4537814E-02    9.7845085E+06
    4.66   900.000   -3.373E+02    1.0082474E+07    8.1888108E+03   -9.7012278E-03    1.0066077E+07   -2.6726021E-02    1.0104937E+07
    4.67   900.000   -3.376E+02    1.0395080E+07    6.4807424E+03   -9.6393615E-03    1.0380681E+07   -2.8701575E-02    1.0423798E+07
    4.68   900.000   -3.380E+02    1.0701884E+07    4.8578303E+03   -9.4392155E-03    1.0689675E+07   -3.0451992E-02    1.0737396E+07
    4.69   900.000   -3.384E+02    1.0999124E+07    3.3307866E+03   -9.0903445E-03    1.0989288E+07   -3.1968576E-02    1.1041949E+07
    4.70   900.000   -3.388E+02    1.1283098E+07    1.9047128E+03   -8.5891463E-03    1.1275796E+07   -3.3246468E-02    1.1333713E+07
    4.71   900.000   -3.392E+02    1.1550295E+07    5.7964969E+02   -7.9389060E-03    1.1545649E+07   -3.4284597E-02    1.1609105E+07
    4.72   900.000   -3.395E+02    1.1797516E+07   -6.4854238E+02   -7.1494321E-03    1.1795594E+07   -3.5085524E-02    1.1864827E+07
    4.73   900.000   -3.399E+02    1.2021979E+07   -1.7870439E+03   -6.2363229E-03    1.2022786E+07   -3.5655136E-02    1.2097973E+07
    4.74   900.000   -3.403E+02    1.2221405E+07   -2.8447697E+03   -5.2199399E-03    1.2224868E+07   -3.6002219E-02    1.2306120E+07
    4.75   900.000   -3.407E+02    1.2394072E+07   -3.8310041E+03   -4.1241926E-03    1.2400041E+07   -3.6137902E-02    1.2487383E+07
    4.76   900.000   -3.411E+02    1.2538844E+07   -4.7540914E+03   -2.9752547E-03    1.2547084E+07   -3.6075024E-02    1.2640452E+07
    4.77   900.000   -3.415E+02    1.2655160E+07   -5.6202967E+03   -1.8003259E-03    1.2665362E+07   -3.5827481E-02    1.2764594E+07
    4.78   900.000   -3.419E+02    1.2743010E+07   -6.4329364E+03   -6.2653850E-04    1.2754800E+07   -3.5409624E-02    1.2859630E+07
    4.79   900.000   -3.423E+02    1.2802887E+07   -7.1918575E+03    5.1992705E-04    1.2815841E+07   -3.4835784E-02    1.2925898E+07
    4.80   900.000   -3.427E+02    1.2835728E+07   -7.8933098E+03    1.6144907E-03    1.2849390E+07   -3.4119989E-02    1.2964205E+07
    4.81   900.000   -3.431E+02    1.2842851E+07   -8.5302133E+03    2.6345979E-03    1.2856758E+07   -3.3275914E-02    1.2975767E+07
    4.82   900.000   -3.435E+02    1.2825894E+07   -9.0927814E+03    3.5599644E-03    1.2839592E+07   -3.2317082E-02    1.2962153E+07
    4.83   900.000   -3.439E+02    1.2786755E+07   -9.5694154E+03    4.3727060E-03    1.2799822E+07   -3.1257273E-02    1.2925227E+07
    4.84   900.000   -3.443E+02    1.2727533E+07   -9.9477627E+03    5.0574210E-03    1.2739598E+07   -3.0111094E-02    1.2867093E+07
    4.85   900.000   -3.447E+02    1.2650478E+07   -1.0215814E+04    5.6012875E-03    1.2661234E+07   -2.8894588E-02    1.2790035E+07
    4.86   900.000   -3.451E+02    1.2557928E+07   -1.0362923E+04    5.9942163E-03    1.2567142E+07   -2.7625797E-02    1.2696462E+07
    4.87   900.000   -3.455E+02    1.2452259E+07   -1.0380653E+04    6.2290720E-03    1.2459778E+07   -2.6325144E-02    1.2588838E+07
    4.88   900.000   -3.459E+02    1.2335820E+07   -1.0263391E+04    6.3019509E-03    1.2341570E+07   -2.5015571E-02    1.2469621E+07
    4.89   900.000   -3.463E+02    1.2210871E+07   -1.0008687E+04    6.2124743E-03    1.2214852E+07   -2.3722386E-02    1.2341188E+07
    4.90   900.000   -3.467E+02    1.2079515E+07   -9.6173417E+03    5.9640452E-03    1.2081793E+07   -2.2472820E-02    1.2205764E+07
    4.91   900.000   -3.470E+02    1.1943634E+07   -9.0932469E+03    5.5640083E-03    1.1944330E+07   -2.1295377E-02    1.2065350E+07
    4.92   900.000   -3.474E+02    1.1804831E+07   -8.4430285E+03    5.0236597E-03    1.1804109E+07   -2.0219032E-02    1.1921663E+07
    4.93   900.000   -3.478E+02    1.1664373E+07   -7.6755319E+03    4.3580727E-03    1.1662429E+07   -1.9272409E-02    1.1776075E+07
    4.94   900.000   -3.482E+02    1.1523158E+07   -6.8011962E+03    3.5857258E-03    1.1520202E+07   -1.8482989E-02    1.1629576E+07
    4.95   900.000   -3.486E+02    1.1381682E+07   -5.8313622E+03    2.7279497E-03    1.1377934E+07   -1.7876418E-02    1.1482747E+07
    4.96   900.000   -3.490E+02    1.1240037E+07   -4.7775608E+03    1.8082286E-03    1.1235713E+07   -1.7475883E-02    1.1335749E+07
    4.97   900.000   -3.493E+02    1.1097916E+07   -3.6508308E+03    8.5141082E-04    1.1093226E+07   -1.7301527E-02    1.1188339E+07
    4.98   900.000   -3.497E+02    1.0954651E+07   -2.4611226E+03   -1.1711187E-04    1.0949788E+07   -1.7369825E-02    1.1039895E+07
    4.99   900.000   -3.501E+02    1.0809250E+07   -1.2168442E+03   -1.0722024E-03    1.0804394E+07   -1.7692841E-02    1.0889468E+07
    5.00   900.000   -3.505E+02    1.0660468E+07    7.5389441E+01   -1.9897109E-03    1.0655779E+07   -1.8277335E-02    1.0735845E+07
