# 0 [Electrical conductivity in SI units, i.e. in 1/Ohm/m]
# Mu(eV) T(K) N(#carriers) sigma_xx sigma_xy sigma_xz sigma_yy sigma_yz sigma_zz
# T(K) = 300.00   Npoints =    1001   V(cm^3) =  1.231E-20
   -5.00   300.000    3.713E+02    2.7757741E+06   -5.1651855E+04   -4.6045928E+04    2.7757741E+06    4.6045941E+04    2.7813800E+06
   -4.99   300.000    3.703E+02    2.7579378E+06   -5.1669405E+04   -4.6367990E+04    2.7579377E+06    4.6367999E+04    2.7632391E+06
   -4.98   300.000    3.693E+02    2.7508516E+06   -5.2305690E+04   -4.7309166E+04    2.7508515E+06    4.7309172E+04    2.7558480E+06
   -4.97   300.000    3.684E+02    2.7511166E+06   -5.3228708E+04   -4.8531863E+04    2.7511166E+06    4.8531866E+04    2.7558134E+06
   -4.96   300.000    3.675E+02    2.7564638E+06   -5.4100566E+04   -4.9701529E+04    2.7564638E+06    4.9701529E+04    2.7608628E+06
   -4.95   300.000    3.666E+02    2.7680976E+06   -5.4618905E+04   -5.0527747E+04    2.7680975E+06    5.0527743E+04    2.7721887E+06
   -4.94   300.000    3.657E+02    2.7906781E+06   -5.4542380E+04   -5.0783991E+04    2.7906781E+06    5.0783985E+04    2.7944365E+06
   -4.93   300.000    3.648E+02    2.8298723E+06   -5.3703503E+04   -5.0310265E+04    2.8298723E+06    5.0310258E+04    2.8332655E+06
   -4.92   300.000    3.640E+02    2.8890377E+06   -5.1976514E+04   -4.8974299E+04    2.8890377E+06    4.8974290E+04    2.8920400E+06
   -4.91   300.000    3.631E+02    2.9668587E+06   -4.9231824E+04   -4.6627008E+04    2.9668587E+06    4.6626997E+04    2.9694635E+06
   -4.90   300.000    3.623E+02    3.0568889E+06   -4.5362004E+04   -4.3134854E+04    3.0568889E+06    4.3134842E+04    3.0591161E+06
   -4.89   300.000    3.614E+02    3.1490478E+06   -4.0386320E+04   -3.8492226E+04    3.1490479E+06    3.8492212E+04    3.1509420E+06
   -4.88   300.000    3.606E+02    3.2324993E+06   -3.4540279E+04   -3.2917479E+04    3.2324994E+06    3.2917463E+04    3.2341222E+06
   -4.87   300.000    3.598E+02    3.2988832E+06   -2.8264572E+04   -2.6845231E+04    3.2988832E+06    2.6845212E+04    3.3003026E+06
   -4.86   300.000    3.590E+02    3.3445382E+06   -2.2091802E+04   -2.0812806E+04    3.3445383E+06    2.0812786E+04    3.3458173E+06
   -4.85   300.000    3.582E+02    3.3705607E+06   -1.6520208E+04   -1.5330493E+04    3.3705608E+06    1.5330471E+04    3.3717505E+06
   -4.84   300.000    3.574E+02    3.3808656E+06   -1.1972494E+04   -1.0834300E+04    3.3808657E+06    1.0834280E+04    3.3820039E+06
   -4.83   300.000    3.567E+02    3.3798492E+06   -8.8096126E+03   -7.6929399E+03    3.3798493E+06    7.6929240E+03    3.3809660E+06
   -4.82   300.000    3.559E+02    3.3709457E+06   -7.2764688E+03   -6.1497653E+03    3.3709458E+06    6.1497551E+03    3.3720725E+06
   -4.81   300.000    3.551E+02    3.3558964E+06   -7.3662417E+03   -6.1893089E+03    3.3558964E+06    6.1893053E+03    3.3570734E+06
   -4.80   300.000    3.544E+02    3.3342359E+06   -8.7401262E+03   -7.4641580E+03    3.3342359E+06    7.4641605E+03    3.3355119E+06
   -4.79   300.000    3.536E+02    3.3034912E+06   -1.0808568E+04   -9.3843254E+03    3.3034912E+06    9.3843326E+03    3.3049155E+06
   -4.78   300.000    3.529E+02    3.2607442E+06   -1.2929869E+04   -1.1321261E+04    3.2607442E+06    1.1321271E+04    3.2623528E+06
   -4.77   300.000    3.521E+02    3.2047894E+06   -1.4596828E+04   -1.2794550E+04    3.2047893E+06    1.2794560E+04    3.2065916E+06
   -4.76   300.000    3.514E+02    3.1370671E+06   -1.5524426E+04   -1.3553277E+04    3.1370670E+06    1.3553284E+04    3.1390382E+06
   -4.75   300.000    3.506E+02    3.0605420E+06   -1.5651000E+04   -1.3567019E+04    3.0605419E+06    1.3567023E+04    3.0626259E+06
   -4.74   300.000    3.499E+02    2.9777273E+06   -1.5106027E+04   -1.2985185E+04    2.9777272E+06    1.2985184E+04    2.9798480E+06
   -4.73   300.000    3.492E+02    2.8897682E+06   -1.4155443E+04   -1.2078939E+04    2.8897681E+06    1.2078933E+04    2.8918446E+06
   -4.72   300.000    3.484E+02    2.7972460E+06   -1.3108344E+04   -1.1147721E+04    2.7972459E+06    1.1147709E+04    2.7992066E+06
   -4.71   300.000    3.477E+02    2.7016796E+06   -1.2215092E+04   -1.0418201E+04    2.7016795E+06    1.0418184E+04    2.7034764E+06
   -4.70   300.000    3.470E+02    2.6062098E+06   -1.1618274E+04   -9.9989012E+03    2.6062097E+06    9.9988805E+03    2.6078290E+06
   -4.69   300.000    3.462E+02    2.5147387E+06   -1.1361128E+04   -9.8970300E+03    2.5147386E+06    9.8970067E+03    2.5162027E+06
   -4.68   300.000    3.455E+02    2.4299524E+06   -1.1409105E+04   -1.0050423E+04    2.4299523E+06    1.0050399E+04    2.4313110E+06
   -4.67   300.000    3.447E+02    2.3515422E+06   -1.1666125E+04   -1.0350957E+04    2.3515421E+06    1.0350934E+04    2.3528573E+06
   -4.66   300.000    3.440E+02    2.2760474E+06   -1.1988802E+04   -1.0660276E+04    2.2760473E+06    1.0660257E+04    2.2773759E+06
   -4.65   300.000    3.432E+02    2.1987091E+06   -1.2202922E+04   -1.0823167E+04    2.1987090E+06    1.0823151E+04    2.2000888E+06
   -4.64   300.000    3.424E+02    2.1162315E+06   -1.2145880E+04   -1.0704293E+04    2.1162315E+06    1.0704282E+04    2.1176731E+06
   -4.63   300.000    3.417E+02    2.0286461E+06   -1.1744604E+04   -1.0258827E+04    2.0286461E+06    1.0258821E+04    2.0301318E+06
   -4.62   300.000    3.410E+02    1.9391216E+06   -1.1073495E+04   -9.5817626E+03    1.9391216E+06    9.5817609E+03    1.9406134E+06
   -4.61   300.000    3.403E+02    1.8520437E+06   -1.0324976E+04   -8.8708272E+03    1.8520437E+06    8.8708283E+03    1.8534978E+06
   -4.60   300.000    3.396E+02    1.7707784E+06   -9.7015209E+03   -8.3169916E+03    1.7707784E+06    8.3169940E+03    1.7721630E+06
   -4.59   300.000    3.390E+02    1.6963395E+06   -9.2997089E+03   -7.9954952E+03    1.6963396E+06    7.9954975E+03    1.6976438E+06
   -4.58   300.000    3.384E+02    1.6272182E+06   -9.0560446E+03   -7.8219975E+03    1.6272182E+06    7.8219984E+03    1.6284523E+06
   -4.57   300.000    3.378E+02    1.5601025E+06   -8.7980610E+03   -7.6098127E+03    1.5601025E+06    7.6098115E+03    1.5612908E+06
   -4.56   300.000    3.372E+02    1.4910930E+06   -8.3830095E+03   -7.2088685E+03    1.4910931E+06    7.2088651E+03    1.4922672E+06
   -4.55   300.000    3.367E+02    1.4168916E+06   -7.8188213E+03   -6.6256652E+03    1.4168916E+06    6.6256598E+03    1.4180848E+06
   -4.54   300.000    3.362E+02    1.3356141E+06   -7.2516341E+03   -6.0124124E+03    1.3356141E+06    6.0124053E+03    1.3368534E+06
   -4.53   300.000    3.357E+02    1.2472322E+06   -6.8292332E+03   -5.5328215E+03    1.2472322E+06    5.5328129E+03    1.2485286E+06
   -4.52   300.000    3.353E+02    1.1535812E+06   -6.5848740E+03   -5.2436279E+03    1.1535813E+06    5.2436179E+03    1.1549225E+06
   -4.51   300.000    3.349E+02    1.0577552E+06   -6.4456384E+03   -5.0936683E+03    1.0577553E+06    5.0936571E+03    1.0591073E+06
   -4.50   300.000    3.345E+02    9.6311265E+05   -6.3064300E+03   -4.9866947E+03    9.6311274E+05    4.9866825E+03    9.6443248E+05
   -4.49   300.000    3.341E+02    8.7246775E+05   -6.0679198E+03   -4.8154248E+03    8.7246784E+05    4.8154119E+03    8.7372034E+05
   -4.48   300.000    3.338E+02    7.8770481E+05   -5.6436514E+03   -4.4759871E+03    7.8770490E+05    4.4759742E+03    7.8887257E+05
   -4.47   300.000    3.334E+02    7.0961405E+05   -4.9910658E+03   -3.9114422E+03    7.0961414E+05    3.9114298E+03    7.1069376E+05
   -4.46   300.000    3.331E+02    6.3788731E+05   -4.1507083E+03   -3.1586814E+03    6.3788739E+05    3.1586703E+03    6.3887942E+05
   -4.45   300.000    3.328E+02    5.7147308E+05   -3.2361553E+03   -2.3365019E+03    5.7147316E+05    2.3364925E+03    5.7237281E+05
   -4.44   300.000    3.325E+02    5.0927380E+05   -2.3729009E+03   -1.5763385E+03    5.0927386E+05    1.5763311E+03    5.1007043E+05
   -4.43   300.000    3.322E+02    4.5079036E+05   -1.6402044E+03   -9.5700735E+02    4.5079041E+05    9.5700228E+02    4.5147361E+05
   -4.42   300.000    3.319E+02    3.9630478E+05   -1.0556990E+03   -4.8831478E+02    3.9630482E+05    4.8831208E+02    3.9687221E+05
   -4.41   300.000    3.316E+02    3.4654613E+05   -5.9796494E+02   -1.3785437E+02    3.4654617E+05    1.3785390E+02    3.4700628E+05
   -4.40   300.000    3.314E+02    3.0219264E+05   -2.3872790E+02    1.3181089E+02    3.0219268E+05   -1.3180945E+02    3.0256322E+05
   -4.39   300.000    3.311E+02    2.6365401E+05    3.8143771E+01    3.4163735E+02    2.6365404E+05   -3.4163452E+02    2.6395754E+05
   -4.38   300.000    3.308E+02    2.3122316E+05    2.3546173E+02    4.9505666E+02    2.3122319E+05   -4.9505304E+02    2.3148279E+05
   -4.37   300.000    3.305E+02    2.0528402E+05    3.5262208E+02    5.8928610E+02    2.0528405E+05   -5.8928230E+02    2.0552071E+05
   -4.36   300.000    3.302E+02    1.8627690E+05    3.9757175E+02    6.2882783E+02    1.8627692E+05   -6.2882433E+02    1.8650818E+05
   -4.35   300.000    3.299E+02    1.7444300E+05    3.9035789E+02    6.3029271E+02    1.7444302E+05   -6.3028988E+02    1.7468295E+05
   -4.34   300.000    3.296E+02    1.6957037E+05    3.5265764E+02    6.1292550E+02    1.6957038E+05   -6.1292356E+02    1.6983065E+05
   -4.33   300.000    3.293E+02    1.7091005E+05    2.9306574E+02    5.8435426E+02    1.7091006E+05   -5.8435333E+02    1.7120135E+05
   -4.32   300.000    3.289E+02    1.7727089E+05    2.0559069E+02    5.3843902E+02    1.7727090E+05   -5.3843916E+02    1.7760375E+05
   -4.31   300.000    3.284E+02    1.8718283E+05    8.4098845E+01    4.6778141E+02    1.8718283E+05   -4.6778260E+02    1.8756651E+05
   -4.30   300.000    3.280E+02    1.9902617E+05   -6.4001270E+01    3.7514686E+02    1.9902618E+05   -3.7514900E+02    1.9946533E+05
   -4.29   300.000    3.274E+02    2.1114707E+05   -2.1913516E+02    2.7134255E+02    2.1114707E+05   -2.7134550E+02    2.1163755E+05
   -4.28   300.000    3.268E+02    2.2205158E+05   -3.6148251E+02    1.6553508E+02    2.2205158E+05   -1.6553869E+02    2.2257860E+05
   -4.27   300.000    3.262E+02    2.3067110E+05   -4.8129902E+02    5.9664211E+01    2.3067111E+05   -5.9668352E+01    2.3121207E+05
   -4.26   300.000    3.254E+02    2.3656172E+05   -5.8303557E+02   -5.1386413E+01    2.3656172E+05    5.1381876E+01    2.3709337E+05
   -4.25   300.000    3.246E+02    2.3992989E+05   -6.8236779E+02   -1.7630252E+02    2.3992990E+05    1.7629772E+02    2.4043596E+05
   -4.24   300.000    3.237E+02    2.4149916E+05   -7.9448126E+02   -3.1936321E+02    2.4149917E+05    3.1935829E+02    2.4197429E+05
   -4.23   300.000    3.228E+02    2.4228352E+05   -9.1893608E+02   -4.7054721E+02    2.4228353E+05    4.7054238E+02    2.4273192E+05
   -4.22   300.000    3.218E+02    2.4331787E+05   -1.0326271E+03   -6.0218458E+02    2.4331788E+05    6.0218006E+02    2.4374832E+05
   -4.21   300.000    3.207E+02    2.4540217E+05   -1.0962336E+03   -6.7636643E+02    2.4540219E+05    6.7636245E+02    2.4582205E+05
   -4.20   300.000    3.197E+02    2.4895001E+05   -1.0726085E+03   -6.6172552E+02    2.4895002E+05    6.6172226E+02    2.4936090E+05
   -4.19   300.000    3.186E+02    2.5401085E+05   -9.5463078E+02   -5.5775274E+02    2.5401086E+05    5.5775035E+02    2.5440774E+05
   -4.18   300.000    3.174E+02    2.6041574E+05   -7.9001099E+02   -4.1567767E+02    2.6041575E+05    4.1567621E+02    2.6079008E+05
   -4.17   300.000    3.162E+02    2.6789369E+05   -6.7666847E+02   -3.3188972E+02    2.6789370E+05    3.3188922E+02    2.6823848E+05
   -4.16   300.000    3.149E+02    2.7606372E+05   -7.1933381E+02   -4.0581153E+02    2.7606373E+05    4.0581199E+02    2.7637725E+05
   -4.15   300.000    3.135E+02    2.8436246E+05   -9.7779123E+02   -6.9138828E+02    2.8436246E+05    6.9138967E+02    2.8464887E+05
   -4.14   300.000    3.119E+02    2.9203489E+05   -1.4446314E+03   -1.1776731E+03    2.9203489E+05    1.1776754E+03    2.9230185E+05
   -4.13   300.000    3.100E+02    2.9823665E+05   -2.0583833E+03   -1.8030152E+03    2.9823666E+05    1.8030182E+03    2.9849202E+05
   -4.12   300.000    3.080E+02    3.0218694E+05   -2.7329208E+03   -2.4838011E+03    3.0218694E+05    2.4838045E+03    3.0243606E+05
   -4.11   300.000    3.056E+02    3.0328445E+05   -3.3856145E+03   -3.1408842E+03    3.0328446E+05    3.1408878E+03    3.0352919E+05
   -4.10   300.000    3.030E+02    3.0115126E+05   -3.9554798E+03   -3.7158210E+03    3.0115127E+05    3.7158243E+03    3.0139093E+05
   -4.09   300.000    3.000E+02    2.9563077E+05   -4.4073649E+03   -4.1739763E+03    2.9563077E+05    4.1739790E+03    2.9586416E+05
   -4.08   300.000    2.967E+02    2.8678922E+05   -4.7255271E+03   -4.4984715E+03    2.8678923E+05    4.4984733E+03    2.8701628E+05
   -4.07   300.000    2.931E+02    2.7494840E+05   -4.9075046E+03   -4.6854641E+03    2.7494841E+05    4.6854649E+03    2.7517045E+05
   -4.06   300.000    2.892E+02    2.6072848E+05   -4.9659364E+03   -4.7472437E+03    2.6072849E+05    4.7472434E+03    2.6094718E+05
   -4.05   300.000    2.850E+02    2.4505009E+05   -4.9339330E+03   -4.7178594E+03    2.4505009E+05    4.7178582E+03    2.4526617E+05
   -4.04   300.000    2.807E+02    2.2906217E+05   -4.8631145E+03   -4.6503938E+03    2.2906218E+05    4.6503918E+03    2.2927490E+05
   -4.03   300.000    2.762E+02    2.1400253E+05   -4.8097540E+03   -4.6019817E+03    2.1400254E+05    4.6019792E+03    2.1421031E+05
   -4.02   300.000    2.717E+02    2.0102358E+05   -4.8148947E+03   -4.6131874E+03    2.0102359E+05    4.6131845E+03    2.0122529E+05
   -4.01   300.000    2.673E+02    1.9102646E+05   -4.8886897E+03   -4.6923595E+03    1.9102646E+05    4.6923566E+03    1.9122279E+05
   -4.00   300.000    2.629E+02    1.8455410E+05   -5.0080449E+03   -4.8138962E+03    1.8455410E+05    4.8138934E+03    1.8474825E+05
   -3.99   300.000    2.586E+02    1.8178760E+05   -5.1309050E+03   -4.9333550E+03    1.8178761E+05    4.9333525E+03    1.8198516E+05
   -3.98   300.000    2.545E+02    1.8264494E+05   -5.2192497E+03   -5.0111234E+03    1.8264494E+05    5.0111214E+03    1.8285307E+05
   -3.97   300.000    2.504E+02    1.8690988E+05   -5.2552931E+03   -5.0289393E+03    1.8690989E+05    5.0289378E+03    1.8713624E+05
   -3.96   300.000    2.464E+02    1.9429585E+05   -5.2429955E+03   -4.9912494E+03    1.9429585E+05    4.9912483E+03    1.9454760E+05
   -3.95   300.000    2.424E+02    2.0441569E+05   -5.2014623E+03   -4.9179930E+03    2.0441569E+05    4.9179921E+03    2.0469916E+05
   -3.94   300.000    2.383E+02    2.1671780E+05   -5.1590040E+03   -4.8378954E+03    2.1671780E+05    4.8378945E+03    2.1703891E+05
   -3.93   300.000    2.342E+02    2.3046914E+05   -5.1474799E+03   -4.7824912E+03    2.3046914E+05    4.7824902E+03    2.3083413E+05
   -3.92   300.000    2.300E+02    2.4482012E+05   -5.1941242E+03   -4.7785590E+03    2.4482013E+05    4.7785578E+03    2.4523569E+05
   -3.91   300.000    2.256E+02    2.5894373E+05   -5.3147778E+03   -4.8427849E+03    2.5894374E+05    4.8427835E+03    2.5941573E+05
   -3.90   300.000    2.212E+02    2.7221674E+05   -5.5132097E+03   -4.9824951E+03    2.7221674E+05    4.9824937E+03    2.7274746E+05
   -3.89   300.000    2.165E+02    2.8436898E+05   -5.7846925E+03   -5.1994186E+03    2.8436898E+05    5.1994174E+03    2.8495425E+05
   -3.88   300.000    2.119E+02    2.9551117E+05   -6.1201347E+03   -5.4921134E+03    2.9551117E+05    5.4921127E+03    2.9613919E+05
   -3.87   300.000    2.072E+02    3.0603151E+05   -6.5087614E+03   -5.8557397E+03    3.0603150E+05    5.8557395E+03    3.0668452E+05
   -3.86   300.000    2.025E+02    3.1646425E+05   -6.9372795E+03   -6.2788827E+03    3.1646424E+05    6.2788832E+03    3.1712264E+05
   -3.85   300.000    1.978E+02    3.2745311E+05   -7.3861368E+03   -6.7393156E+03    3.2745310E+05    6.7393165E+03    3.2809992E+05
   -3.84   300.000    1.933E+02    3.3982578E+05   -7.8278218E+03   -7.2033837E+03    3.3982576E+05    7.2033851E+03    3.4045020E+05
   -3.83   300.000    1.888E+02    3.5464335E+05   -8.2309282E+03   -7.6316837E+03    3.5464333E+05    7.6316852E+03    3.5524258E+05
   -3.82   300.000    1.845E+02    3.7302513E+05   -8.5685430E+03   -7.9889783E+03    3.7302511E+05    7.9889798E+03    3.7360468E+05
   -3.81   300.000    1.804E+02    3.9568600E+05   -8.8268908E+03   -8.2542947E+03    3.9568599E+05    8.2542957E+03    3.9625858E+05
   -3.80   300.000    1.764E+02    4.2240085E+05   -9.0110694E+03   -8.4281287E+03    4.2240083E+05    8.4281292E+03    4.2298377E+05
   -3.79   300.000    1.726E+02    4.5179734E+05   -9.1465554E+03   -8.5352238E+03    4.5179732E+05    8.5352235E+03    4.5240866E+05
   -3.78   300.000    1.690E+02    4.8176546E+05   -9.2764407E+03   -8.6222792E+03    4.8176544E+05    8.6222779E+03    4.8241960E+05
   -3.77   300.000    1.657E+02    5.1037168E+05   -9.4545521E+03   -8.7498685E+03    5.1037167E+05    8.7498662E+03    5.1107635E+05
   -3.76   300.000    1.625E+02    5.3675164E+05   -9.7355949E+03   -8.9792421E+03    5.3675162E+05    8.9792388E+03    5.3750798E+05
   -3.75   300.000    1.596E+02    5.6138469E+05   -1.0166045E+04   -9.3589575E+03    5.6138468E+05    9.3589531E+03    5.6219176E+05
   -3.74   300.000    1.570E+02    5.8553508E+05   -1.0775300E+04   -9.9140083E+03    5.8553507E+05    9.9140029E+03    5.8639636E+05
   -3.73   300.000    1.546E+02    6.1015318E+05   -1.1555985E+04   -1.0628921E+04    6.1015316E+05    1.0628914E+04    6.1108023E+05
   -3.72   300.000    1.524E+02    6.3478331E+05   -1.2431328E+04   -1.1421690E+04    6.3478328E+05    1.1421683E+04    6.3579292E+05
   -3.71   300.000    1.504E+02    6.5705001E+05   -1.3240305E+04   -1.2134844E+04    6.5704999E+05    1.2134835E+04    6.5815545E+05
   -3.70   300.000    1.487E+02    6.7323134E+05   -1.3782062E+04   -1.2580747E+04    6.7323132E+05    1.2580738E+04    6.7443263E+05
   -3.69   300.000    1.471E+02    6.8000380E+05   -1.3919168E+04   -1.2639802E+04    6.8000378E+05    1.2639793E+04    6.8128314E+05
   -3.68   300.000    1.457E+02    6.7652319E+05   -1.3674289E+04   -1.2350033E+04    6.7652317E+05    1.2350025E+04    6.7784742E+05
   -3.67   300.000    1.444E+02    6.6539884E+05   -1.3235173E+04   -1.1908517E+04    6.6539882E+05    1.1908510E+04    6.6672547E+05
   -3.66   300.000    1.433E+02    6.5176206E+05   -1.2849705E+04   -1.1567471E+04    6.5176204E+05    1.1567464E+04    6.5304427E+05
   -3.65   300.000    1.422E+02    6.4105607E+05   -1.2688512E+04   -1.1497854E+04    6.4105605E+05    1.1497848E+04    6.4224671E+05
   -3.64   300.000    1.412E+02    6.3692136E+05   -1.2774662E+04   -1.1716897E+04    6.3692134E+05    1.1716892E+04    6.3797910E+05
   -3.63   300.000    1.402E+02    6.4010125E+05   -1.3013277E+04   -1.2115788E+04    6.4010123E+05    1.2115785E+04    6.4099871E+05
   -3.62   300.000    1.393E+02    6.4850883E+05   -1.3272387E+04   -1.2543342E+04    6.4850881E+05    1.2543340E+04    6.4923785E+05
   -3.61   300.000    1.383E+02    6.5819318E+05   -1.3438316E+04   -1.2867790E+04    6.5819316E+05    1.2867789E+04    6.5876369E+05
   -3.60   300.000    1.374E+02    6.6478343E+05   -1.3412204E+04   -1.2978363E+04    6.6478342E+05    1.2978364E+04    6.6521726E+05
   -3.59   300.000    1.365E+02    6.6488468E+05   -1.3090437E+04   -1.2766796E+04    6.6488467E+05    1.2766797E+04    6.6520831E+05
   -3.58   300.000    1.356E+02    6.5692830E+05   -1.2394499E+04   -1.2155249E+04    6.5692829E+05    1.2155251E+04    6.5716754E+05
   -3.57   300.000    1.348E+02    6.4119711E+05   -1.1341677E+04   -1.1164360E+04    6.4119710E+05    1.1164363E+04    6.4137442E+05
   -3.56   300.000    1.339E+02    6.1917855E+05   -1.0076597E+04   -9.9428102E+03    6.1917855E+05    9.9428142E+03    6.1931234E+05
   -3.55   300.000    1.331E+02    5.9283116E+05   -8.8206096E+03   -8.7156873E+03    5.9283117E+05    8.7156917E+03    5.9293609E+05
   -3.54   300.000    1.323E+02    5.6426927E+05   -7.7792088E+03   -7.6915241E+03    5.6426928E+05    7.6915288E+03    5.6435697E+05
   -3.53   300.000    1.314E+02    5.3576514E+05   -7.0710407E+03   -6.9912079E+03    5.3576515E+05    6.9912129E+03    5.3584498E+05
   -3.52   300.000    1.306E+02    5.0959697E+05   -6.7070896E+03   -6.6271589E+03    5.0959698E+05    6.6271642E+03    5.0967691E+05
   -3.51   300.000    1.298E+02    4.8761332E+05   -6.6109025E+03   -6.5236145E+03    4.8761333E+05    6.5236198E+03    4.8770062E+05
   -3.50   300.000    1.289E+02    4.7089834E+05   -6.6614524E+03   -6.5596617E+03    4.7089835E+05    6.5596671E+03    4.7100014E+05
   -3.49   300.000    1.280E+02    4.5988478E+05   -6.7477406E+03   -6.6241852E+03    4.5988479E+05    6.6241903E+03    4.6000835E+05
   -3.48   300.000    1.271E+02    4.5477621E+05   -6.8194818E+03   -6.6671358E+03    4.5477622E+05    6.6671404E+03    4.5492857E+05
   -3.47   300.000    1.262E+02    4.5583679E+05   -6.9069261E+03   -6.7201005E+03    4.5583679E+05    6.7201043E+03    4.5602362E+05
   -3.46   300.000    1.253E+02    4.6325318E+05   -7.0949013E+03   -6.8708867E+03    4.6325318E+05    6.8708893E+03    4.6347720E+05
   -3.45   300.000    1.243E+02    4.7661972E+05   -7.4669158E+03   -7.2073799E+03    4.7661973E+05    7.2073811E+03    4.7687926E+05
   -3.44   300.000    1.233E+02    4.9438294E+05   -8.0536755E+03   -7.7646924E+03    4.9438294E+05    7.7646922E+03    4.9467193E+05
   -3.43   300.000    1.223E+02    5.1371282E+05   -8.8130847E+03   -8.5031076E+03    5.1371282E+05    8.5031061E+03    5.1402280E+05
   -3.42   300.000    1.213E+02    5.3109152E+05   -9.6465499E+03   -9.3227181E+03    5.3109152E+05    9.3227156E+03    5.3141535E+05
   -3.41   300.000    1.204E+02    5.4341349E+05   -1.0440712E+04   -1.0104770E+04    5.4341349E+05    1.0104767E+04    5.4374943E+05
   -3.40   300.000    1.194E+02    5.4899791E+05   -1.1120941E+04   -1.0766124E+04    5.4899791E+05    1.0766121E+04    5.4935272E+05
   -3.39   300.000    1.184E+02    5.4799726E+05   -1.1696188E+04   -1.1305898E+04    5.4799726E+05    1.1305895E+04    5.4838755E+05
   -3.38   300.000    1.175E+02    5.4208999E+05   -1.2268396E+04   -1.1816879E+04    5.4208999E+05    1.1816876E+04    5.4254151E+05
   -3.37   300.000    1.165E+02    5.3371849E+05   -1.3001135E+04   -1.2456073E+04    5.3371849E+05    1.2456071E+04    5.3426355E+05
   -3.36   300.000    1.155E+02    5.2530931E+05   -1.4070271E+04   -1.3397360E+04    5.2530931E+05    1.3397359E+04    5.2598222E+05
   -3.35   300.000    1.145E+02    5.1881741E+05   -1.5611186E+04   -1.4780909E+04    5.1881741E+05    1.4780909E+04    5.1964769E+05
   -3.34   300.000    1.135E+02    5.1562552E+05   -1.7658861E+04   -1.6655038E+04    5.1562552E+05    1.6655038E+04    5.1662934E+05
   -3.33   300.000    1.125E+02    5.1658431E+05   -2.0094639E+04   -1.8922336E+04    5.1658430E+05    1.8922336E+04    5.1775660E+05
   -3.32   300.000    1.114E+02    5.2199224E+05   -2.2638375E+04   -2.1326342E+04    5.2199223E+05    2.1326342E+04    5.2330427E+05
   -3.31   300.000    1.103E+02    5.3149362E+05   -2.4906111E+04   -2.3499404E+04    5.3149361E+05    2.3499404E+04    5.3290032E+05
   -3.30   300.000    1.092E+02    5.4403422E+05   -2.6508000E+04   -2.5052028E+04    5.4403420E+05    2.5052029E+04    5.4549018E+05
   -3.29   300.000    1.081E+02    5.5802407E+05   -2.7141755E+04   -2.5666310E+04    5.5802405E+05    2.5666311E+04    5.5949949E+05
   -3.28   300.000    1.070E+02    5.7171647E+05   -2.6655726E+04   -2.5168906E+04    5.7171644E+05    2.5168907E+04    5.7320326E+05
   -3.27   300.000    1.059E+02    5.8367611E+05   -2.5080172E+04   -2.3575469E+04    5.8367607E+05    2.3575470E+04    5.8518078E+05
   -3.26   300.000    1.048E+02    5.9315689E+05   -2.2624887E+04   -2.1095989E+04    5.9315685E+05    2.1095990E+04    5.9468575E+05
   -3.25   300.000    1.037E+02    6.0021835E+05   -1.9632684E+04   -1.8086476E+04    6.0021831E+05    1.8086476E+04    6.0176452E+05
   -3.24   300.000    1.026E+02    6.0554905E+05   -1.6495701E+04   -1.4956114E+04    6.0554901E+05    1.4956113E+04    6.0708860E+05
   -3.23   300.000    1.015E+02    6.1021584E+05   -1.3564585E+04   -1.2066033E+04    6.1021581E+05    1.2066031E+04    6.1171436E+05
   -3.22   300.000    1.004E+02    6.1559840E+05   -1.1078435E+04   -9.6537388E+03    6.1559838E+05    9.6537359E+03    6.1702307E+05
   -3.21   300.000    9.932E+01    6.2343076E+05   -9.1344950E+03   -7.8045707E+03    6.2343074E+05    7.8045668E+03    6.2476066E+05
   -3.20   300.000    9.825E+01    6.3557323E+05   -7.7059167E+03   -6.4758623E+03    6.3557321E+05    6.4758574E+03    6.3680327E+05
   -3.19   300.000    9.719E+01    6.5337722E+05   -6.6956979E+03   -5.5571509E+03    6.5337721E+05    5.5571447E+03    6.5451576E+05
   -3.18   300.000    9.614E+01    6.7706400E+05   -6.0043650E+03   -4.9409709E+03    6.7706399E+05    4.9409633E+03    6.7812739E+05
   -3.17   300.000    9.508E+01    7.0568381E+05   -5.5858293E+03   -4.5785421E+03    7.0568380E+05    4.5785330E+03    7.0669109E+05
   -3.16   300.000    9.401E+01    7.3768877E+05   -5.4614046E+03   -4.4918190E+03    7.3768876E+05    4.4918085E+03    7.3865835E+05
   -3.15   300.000    9.294E+01    7.7153419E+05   -5.6825019E+03   -4.7341508E+03    7.7153418E+05    4.7341391E+03    7.7248253E+05
   -3.14   300.000    9.186E+01    8.0576893E+05   -6.2702041E+03   -5.3289921E+03    8.0576892E+05    5.3289796E+03    8.0671013E+05
   -3.13   300.000    9.079E+01    8.3874666E+05   -7.1689187E+03   -6.2238807E+03    8.3874665E+05    6.2238681E+03    8.3969168E+05
   -3.12   300.000    8.971E+01    8.6855057E+05   -8.2326001E+03   -7.2771171E+03    8.6855056E+05    7.2771049E+03    8.6950604E+05
   -3.11   300.000    8.864E+01    8.9342438E+05   -9.2450299E+03   -8.2780583E+03    8.9342437E+05    8.2780467E+03    8.9439134E+05
   -3.10   300.000    8.757E+01    9.1237893E+05   -9.9683914E+03   -8.9957561E+03    9.1237892E+05    8.9957452E+03    9.1335156E+05
   -3.09   300.000    8.650E+01    9.2547238E+05   -1.0212527E+04   -9.2480391E+03    9.2547237E+05    9.2480288E+03    9.2643686E+05
   -3.08   300.000    8.542E+01    9.3364119E+05   -9.9087574E+03   -8.9732964E+03    9.3364118E+05    8.9732866E+03    9.3457665E+05
   -3.07   300.000    8.434E+01    9.3829789E+05   -9.1561722E+03   -8.2730136E+03    9.3829788E+05    8.2730042E+03    9.3918104E+05
   -3.06   300.000    8.323E+01    9.4085987E+05   -8.2076726E+03   -7.3957082E+03    9.4085987E+05    7.3956991E+03    9.4167183E+05
   -3.05   300.000    8.208E+01    9.4229561E+05   -7.3903660E+03   -6.6593043E+03    9.4229561E+05    6.6592954E+03    9.4302667E+05
   -3.04   300.000    8.090E+01    9.4293368E+05   -6.9956305E+03   -6.3452966E+03    9.4293368E+05    6.3452880E+03    9.4358402E+05
   -3.03   300.000    7.966E+01    9.4274521E+05   -7.1952256E+03   -6.6175432E+03    9.4274522E+05    6.6175347E+03    9.4332290E+05
   -3.02   300.000    7.835E+01    9.4182836E+05   -8.0172713E+03   -7.4986760E+03    9.4182837E+05    7.4986676E+03    9.4234696E+05
   -3.01   300.000    7.696E+01    9.4052133E+05   -9.3743347E+03   -8.8977770E+03    9.4052134E+05    8.8977685E+03    9.4099790E+05
   -3.00   300.000    7.549E+01    9.3898255E+05   -1.1116767E+04   -1.0663341E+04    9.3898255E+05    1.0663333E+04    9.3943598E+05
   -2.99   300.000    7.392E+01    9.3672546E+05   -1.3086911E+04   -1.2636989E+04    9.3672547E+05    1.2636981E+04    9.3717539E+05
   -2.98   300.000    7.226E+01    9.3270935E+05   -1.5150522E+04   -1.4684306E+04    9.3270935E+05    1.4684299E+04    9.3317557E+05
   -2.97   300.000    7.051E+01    9.2604160E+05   -1.7183911E+04   -1.6681964E+04    9.2604161E+05    1.6681957E+04    9.2654355E+05
   -2.96   300.000    6.865E+01    9.1667232E+05   -1.9023708E+04   -1.8468479E+04    9.1667232E+05    1.8468474E+04    9.1722755E+05
   -2.95   300.000    6.670E+01    9.0540340E+05   -2.0437451E+04   -1.9816271E+04    9.0540339E+05    1.9816267E+04    9.0602457E+05
   -2.94   300.000    6.466E+01    8.9324135E+05   -2.1184473E+04   -2.0493090E+04    8.9324134E+05    2.0493087E+04    8.9393272E+05
   -2.93   300.000    6.252E+01    8.8074262E+05   -2.1157614E+04   -2.0402354E+04    8.8074260E+05    2.0402353E+04    8.8149786E+05
   -2.92   300.000    6.028E+01    8.6783874E+05   -2.0494623E+04   -1.9691578E+04    8.6783873E+05    1.9691578E+04    8.6864177E+05
   -2.91   300.000    5.795E+01    8.5411630E+05   -1.9549058E+04   -1.8720404E+04    8.5411628E+05    1.8720403E+04    8.5494493E+05
   -2.90   300.000    5.553E+01    8.3928658E+05   -1.8727347E+04   -1.7896630E+04    8.3928656E+05    1.7896630E+04    8.4011728E+05
   -2.89   300.000    5.303E+01    8.2358435E+05   -1.8306282E+04   -1.7494607E+04    8.2358433E+05    1.7494606E+04    8.2439601E+05
   -2.88   300.000    5.047E+01    8.0789510E+05   -1.8342318E+04   -1.7565722E+04    8.0789509E+05    1.7565720E+04    8.0867168E+05
   -2.87   300.000    4.789E+01    7.9354314E+05   -1.8704947E+04   -1.7972259E+04    7.9354312E+05    1.7972256E+04    7.9427581E+05
   -2.86   300.000    4.531E+01    7.8184147E+05   -1.9195570E+04   -1.8507043E+04    7.8184145E+05    1.8507039E+04    7.8252998E+05
   -2.85   300.000    4.278E+01    7.7357961E+05   -1.9677966E+04   -1.9026154E+04    7.7357960E+05    1.9026148E+04    7.7423141E+05
   -2.84   300.000    4.032E+01    7.6861473E+05   -2.0143629E+04   -1.9517151E+04    7.6861471E+05    1.9517143E+04    7.6924119E+05
   -2.83   300.000    3.797E+01    7.6574496E+05   -2.0675710E+04   -2.0064533E+04    7.6574494E+05    2.0064524E+04    7.6635611E+05
   -2.82   300.000    3.576E+01    7.6306138E+05   -2.1350848E+04   -2.0750441E+04    7.6306136E+05    2.0750432E+04    7.6366176E+05
   -2.81   300.000    3.370E+01    7.5878817E+05   -2.2166107E+04   -2.1578183E+04    7.5878815E+05    2.1578173E+04    7.5937607E+05
   -2.80   300.000    3.178E+01    7.5219657E+05   -2.3042565E+04   -2.2472069E+04    7.5219655E+05    2.2472060E+04    7.5276704E+05
   -2.79   300.000    3.003E+01    7.4393948E+05   -2.3875046E+04   -2.3325629E+04    7.4393947E+05    2.3325620E+04    7.4448888E+05
   -2.78   300.000    2.842E+01    7.3550570E+05   -2.4560193E+04   -2.4031382E+04    7.3550569E+05    2.4031373E+04    7.3603450E+05
   -2.77   300.000    2.695E+01    7.2819206E+05   -2.4974216E+04   -2.4461632E+04    7.2819205E+05    2.4461625E+04    7.2870464E+05
   -2.76   300.000    2.561E+01    7.2236101E+05   -2.4939450E+04   -2.4436817E+04    7.2236100E+05    2.4436810E+04    7.2286364E+05
   -2.75   300.000    2.439E+01    7.1745196E+05   -2.4249163E+04   -2.3750242E+04    7.1745195E+05    2.3750237E+04    7.1795087E+05
   -2.74   300.000    2.327E+01    7.1257070E+05   -2.2770311E+04   -2.2270214E+04    7.1257069E+05    2.2270210E+04    7.1307079E+05
   -2.73   300.000    2.223E+01    7.0708207E+05   -2.0546326E+04   -2.0042595E+04    7.0708206E+05    2.0042593E+04    7.0758579E+05
   -2.72   300.000    2.128E+01    7.0078442E+05   -1.7797210E+04   -1.7290668E+04    7.0078441E+05    1.7290667E+04    7.0129095E+05
   -2.71   300.000    2.041E+01    6.9368524E+05   -1.4814671E+04   -1.4309267E+04    6.9368523E+05    1.4309266E+04    6.9419064E+05
   -2.70   300.000    1.960E+01    6.8559897E+05   -1.1856048E+04   -1.1357028E+04    6.8559895E+05    1.1357028E+04    6.8609797E+05
   -2.69   300.000    1.885E+01    6.7573543E+05   -9.1271560E+03   -8.6378483E+03    6.7573542E+05    8.6378491E+03    6.7622473E+05
   -2.68   300.000    1.816E+01    6.6256249E+05   -6.8321750E+03   -6.3505864E+03    6.6256247E+05    6.3505875E+03    6.6304406E+05
   -2.67   300.000    1.752E+01    6.4432553E+05   -5.1891199E+03   -4.7054806E+03    6.4432551E+05    4.7054818E+03    6.4480915E+05
   -2.66   300.000    1.693E+01    6.2008325E+05   -4.3604025E+03   -3.8560309E+03    6.2008323E+05    3.8560319E+03    6.2058760E+05
   -2.65   300.000    1.637E+01    5.9037655E+05   -4.3573039E+03   -3.8049181E+03    5.9037653E+05    3.8049189E+03    5.9092892E+05
   -2.64   300.000    1.584E+01    5.5685077E+05   -5.0020835E+03   -4.3682033E+03    5.5685076E+05    4.3682040E+03    5.5748464E+05
   -2.63   300.000    1.534E+01    5.2124448E+05   -5.9745788E+03   -5.2249790E+03    5.2124448E+05    5.2249796E+03    5.2199408E+05
   -2.62   300.000    1.487E+01    4.8475019E+05   -6.9201607E+03   -6.0286919E+03    4.8475018E+05    6.0286926E+03    4.8564165E+05
   -2.61   300.000    1.441E+01    4.4818690E+05   -7.5703895E+03   -6.5296268E+03    4.4818690E+05    6.5296277E+03    4.4922767E+05
   -2.60   300.000    1.397E+01    4.1253748E+05   -7.8133810E+03   -6.6428852E+03    4.1253749E+05    6.6428862E+03    4.1370798E+05
   -2.59   300.000    1.354E+01    3.7918418E+05   -7.6758608E+03   -6.4225433E+03    3.7918419E+05    6.4225443E+03    3.8043751E+05
   -2.58   300.000    1.311E+01    3.4964898E+05   -7.2504944E+03   -5.9787796E+03    3.4964898E+05    5.9787804E+03    3.5092070E+05
   -2.57   300.000    1.269E+01    3.2513515E+05   -6.6451680E+03   -5.4213017E+03    3.2513516E+05    5.4213022E+03    3.2635902E+05
   -2.56   300.000    1.227E+01    3.0619567E+05   -5.9859066E+03   -4.8642461E+03    3.0619568E+05    4.8642462E+03    3.0731734E+05
   -2.55   300.000    1.185E+01    2.9260017E+05   -5.4327142E+03   -4.4485496E+03    2.9260017E+05    4.4485494E+03    2.9358434E+05
   -2.54   300.000    1.144E+01    2.8337192E+05   -5.1588619E+03   -4.3271521E+03    2.8337192E+05    4.3271517E+03    2.8420363E+05
   -2.53   300.000    1.103E+01    2.7704868E+05   -5.2955142E+03   -4.6131103E+03    2.7704868E+05    4.6131099E+03    2.7773108E+05
   -2.52   300.000    1.063E+01    2.7217247E+05   -5.8842543E+03   -5.3339101E+03    2.7217247E+05    5.3339099E+03    2.7272281E+05
   -2.51   300.000    1.024E+01    2.6778598E+05   -6.8699990E+03   -6.4250868E+03    2.6778597E+05    6.4250873E+03    2.6823088E+05
   -2.50   300.000    9.866E+00    2.6364332E+05   -8.1321218E+03   -7.7610643E+03    2.6364332E+05    7.7610657E+03    2.6401437E+05
   -2.49   300.000    9.509E+00    2.6009618E+05   -9.5342321E+03   -9.2038915E+03    2.6009617E+05    9.2038940E+03    2.6042651E+05
   -2.48   300.000    9.171E+00    2.5787911E+05   -1.0974532E+04   -1.0652399E+04    2.5787910E+05    1.0652403E+04    2.5820123E+05
   -2.47   300.000    8.849E+00    2.5795644E+05   -1.2414366E+04   -1.2070006E+04    2.5795643E+05    1.2070011E+04    2.5830079E+05
   -2.46   300.000    8.542E+00    2.6134371E+05   -1.3852961E+04   -1.3459356E+04    2.6134370E+05    1.3459361E+04    2.6173730E+05
   -2.45   300.000    8.246E+00    2.6875529E+05   -1.5236084E+04   -1.4771087E+04    2.6875528E+05    1.4771093E+04    2.6922027E+05
   -2.44   300.000    7.957E+00    2.8013061E+05   -1.6350255E+04   -1.5797621E+04    2.8013060E+05    1.5797628E+04    2.8068323E+05
   -2.43   300.000    7.674E+00    2.9429476E+05   -1.6806891E+04   -1.6156038E+04    2.9429474E+05    1.6156045E+04    2.9494560E+05
   -2.42   300.000    7.394E+00    3.0901201E+05   -1.6185749E+04   -1.5430548E+04    3.0901200E+05    1.5430554E+04    3.0976720E+05
   -2.41   300.000    7.118E+00    3.2151928E+05   -1.4285453E+04   -1.3424070E+04    3.2151926E+05    1.3424075E+04    3.2238064E+05
   -2.40   300.000    6.847E+00    3.2937456E+05   -1.1309014E+04   -1.0346508E+04    3.2937454E+05    1.0346512E+04    3.3033705E+05
   -2.39   300.000    6.582E+00    3.3121210E+05   -7.8096445E+03   -6.7614942E+03    3.3121208E+05    6.7614969E+03    3.3226023E+05
   -2.38   300.000    6.324E+00    3.2694616E+05   -4.3955377E+03   -3.2871298E+03    3.2694613E+05    3.2871313E+03    3.2805454E+05
   -2.37   300.000    6.074E+00    3.1729017E+05   -1.4220173E+03   -2.8139869E+02    3.1729015E+05    2.8139928E+02    3.1843076E+05
   -2.36   300.000    5.833E+00    3.0298442E+05    1.0723964E+03    2.2242760E+03    3.0298440E+05   -2.2242761E+03    3.0413628E+05
   -2.35   300.000    5.601E+00    2.8435120E+05    3.1757086E+03    4.3290631E+03    2.8435118E+05   -4.3290637E+03    2.8550453E+05
   -2.34   300.000    5.379E+00    2.6146893E+05    4.8928997E+03    6.0435523E+03    2.6146891E+05   -6.0435531E+03    2.6261956E+05
   -2.33   300.000    5.169E+00    2.3469951E+05    6.1192670E+03    7.2579347E+03    2.3469949E+05   -7.2579355E+03    2.3583816E+05
   -2.32   300.000    4.973E+00    2.0505081E+05    6.7647136E+03    7.8698878E+03    2.0505079E+05   -7.8698886E+03    2.0615596E+05
   -2.31   300.000    4.793E+00    1.7409321E+05    6.8537970E+03    7.8936080E+03    1.7409319E+05   -7.8936087E+03    1.7513300E+05
   -2.30   300.000    4.633E+00    1.4357042E+05    6.5076651E+03    7.4486829E+03    1.4357041E+05   -7.4486834E+03    1.4451143E+05
   -2.29   300.000    4.493E+00    1.1502169E+05    5.8682957E+03    6.6848655E+03    1.1502168E+05   -6.6848660E+03    1.1583825E+05
   -2.28   300.000    4.375E+00    8.9582288E+04    5.0561771E+03    5.7356801E+03    8.9582281E+04   -5.7356805E+03    9.0261784E+04
   -2.27   300.000    4.279E+00    6.7924962E+04    4.1725677E+03    4.7159979E+03    6.7924957E+04   -4.7159983E+03    6.8468387E+04
   -2.26   300.000    4.204E+00    5.0266844E+04    3.3063358E+03    3.7255999E+03    5.0266841E+04   -3.7256002E+03    5.0686105E+04
   -2.25   300.000    4.146E+00    3.6429035E+04    2.5265731E+03    2.8401838E+03    3.6429033E+04   -2.8401841E+03    3.6742643E+04
   -2.24   300.000    4.103E+00    2.5953152E+04    1.8728312E+03    2.1015440E+03    2.5953150E+04   -2.1015443E+03    2.6181863E+04
   -2.23   300.000    4.072E+00    1.8244890E+04    1.3551369E+03    1.5186623E+03    1.8244889E+04   -1.5186625E+03    1.8408414E+04
   -2.22   300.000    4.050E+00    1.2698203E+04    9.6275298E+02    1.0779397E+03    1.2698203E+04   -1.0779398E+03    1.2813389E+04
   -2.21   300.000    4.034E+00    8.7734747E+03    6.7485105E+02    7.5510865E+02    8.7734742E+03   -7.5510873E+02    8.8537318E+03
   -2.20   300.000    4.024E+00    6.0303644E+03    4.6850488E+02    5.2399170E+02    6.0303640E+03   -5.2399175E+02    6.0858508E+03
   -2.19   300.000    4.016E+00    4.1299680E+03    3.2304711E+02    3.6119988E+02    4.1299677E+03   -3.6119992E+02    4.1681205E+03
   -2.18   300.000    4.011E+00    2.8216333E+03    2.2169340E+02    2.4782955E+02    2.8216331E+03   -2.4782957E+02    2.8477692E+03
   -2.17   300.000    4.007E+00    1.9249624E+03    1.5163483E+02    1.6949546E+02    1.9249622E+03   -1.6949548E+02    1.9428229E+03
   -2.16   300.000    4.005E+00    1.3125325E+03    1.0347264E+02    1.1566123E+02    1.3125324E+03   -1.1566124E+02    1.3247210E+03
   -2.15   300.000    4.003E+00    8.9551189E+02    7.0483933E+01    7.8799280E+01    8.9551184E+02   -7.8799288E+01    9.0382718E+02
   -2.14   300.000    4.002E+00    6.1256546E+02    4.7939764E+01    5.3619456E+01    6.1256543E+02   -5.3619462E+01    6.1824512E+02
   -2.13   300.000    4.001E+00    4.2168366E+02    3.2550044E+01    3.6444267E+01    4.2168364E+02   -3.6444271E+01    4.2557786E+02
   -2.12   300.000    4.001E+00    2.9434479E+02    2.2041470E+01    2.4735438E+01    2.9434477E+02   -2.4735441E+01    2.9703874E+02
   -2.11   300.000    4.000E+00    2.1143999E+02    1.4848993E+01    1.6748638E+01    2.1143998E+02   -1.6748640E+01    2.1333963E+02
   -2.10   300.000    4.000E+00    1.6049224E+02    9.8954526E+00    1.1287540E+01    1.6049224E+02   -1.1287542E+01    1.6188433E+02
   -2.09   300.000    3.999E+00    1.3381805E+02    6.4361832E+00    7.5311120E+00    1.3381806E+02   -7.5311140E+00    1.3491299E+02
   -2.08   300.000    3.998E+00    1.2738543E+02    3.9498239E+00    4.9131854E+00    1.2738545E+02   -4.9131876E+00    1.2834881E+02
   -2.07   300.000    3.997E+00    1.4020882E+02    2.0610392E+00    3.0385192E+00    1.4020885E+02   -3.0385220E+00    1.4118633E+02
   -2.06   300.000    3.996E+00    1.7419292E+02    4.8450395E-01    1.6237883E+00    1.7419297E+02   -1.6237921E+00    1.7533225E+02
   -2.05   300.000    3.994E+00    2.3439754E+02   -1.0178020E+00    4.5509368E-01    2.3439761E+02   -4.5509908E-01    2.3587051E+02
   -2.04   300.000    3.991E+00    3.2974901E+02   -2.6721323E+00   -6.4416550E-01    3.2974912E+02    6.4415772E-01    3.3177708E+02
   -2.03   300.000    3.986E+00    4.7427236E+02   -4.7264007E+00   -1.8397482E+00    4.7427252E+02    1.8397368E+00    4.7715917E+02
   -2.02   300.000    3.980E+00    6.8895875E+02   -7.4860222E+00   -3.3111591E+00    6.8895898E+02    3.3111426E+00    6.9313384E+02
   -2.01   300.000    3.970E+00    1.0044000E+03   -1.1356511E+01   -5.2777184E+00    1.0044003E+03    5.2776944E+00    1.0104791E+03
   -2.00   300.000    3.957E+00    1.4642795E+03   -1.6896968E+01   -8.0292219E+00    1.4642800E+03    8.0291871E+00    1.4731478E+03
   -1.99   300.000    3.937E+00    2.1296301E+03   -2.4887563E+01   -1.1963856E+01    2.1296308E+03    1.1963806E+01    2.1425545E+03
   -1.98   300.000    3.908E+00    3.0833215E+03   -3.6410601E+01   -1.7634416E+01    3.0833226E+03    1.7634344E+01    3.1020987E+03
   -1.97   300.000    3.867E+00    4.4333350E+03   -5.2935348E+01   -2.5798909E+01    4.4333365E+03    2.5798808E+01    4.4604729E+03
   -1.96   300.000    3.809E+00    6.3118871E+03   -7.6375936E+01   -3.7459260E+01    6.3118892E+03    3.7459120E+01    6.3508059E+03
   -1.95   300.000    3.730E+00    8.8656429E+03   -1.0905358E+02   -5.3846942E+01    8.8656458E+03    5.3846755E+01    8.9208524E+03
   -1.94   300.000    3.623E+00    1.2231453E+04   -1.5344445E+02   -7.6279048E+01    1.2231457E+04    7.6278809E+01    1.2308622E+04
   -1.93   300.000    3.483E+00    1.6495179E+04   -2.1157669E+02   -1.0579375E+02    1.6495184E+04    1.0579346E+02    1.6600967E+04
   -1.92   300.000    3.309E+00    2.1641257E+04   -2.8405774E+02   -1.4256103E+02    2.1641263E+04    1.4256072E+02    2.1782760E+04
   -1.91   300.000    3.099E+00    2.7515369E+04   -3.6905297E+02   -1.8532185E+02    2.7515377E+04    1.8532156E+02    2.7699108E+04
   -1.90   300.000    2.858E+00    3.3829294E+04   -4.6192345E+02   -2.3138712E+02    3.3829303E+04    2.3138692E+02    3.4059840E+04
   -1.89   300.000    2.595E+00    4.0220918E+04   -5.5611415E+02   -2.7757541E+02    4.0220928E+04    2.7757542E+02    4.0499466E+04
   -1.88   300.000    2.319E+00    4.6348450E+04   -6.4491367E+02   -3.2163730E+02    4.6348461E+04    3.2163762E+02    4.6671737E+04
   -1.87   300.000    2.038E+00    5.1974206E+04   -7.2260571E+02   -3.6285040E+02    5.1974216E+04    3.6285116E+02    5.2333971E+04
   -1.86   300.000    1.760E+00    5.7002346E+04   -7.8387932E+02   -4.0080336E+02    5.7002355E+04    4.0080461E+02    5.7385431E+04
   -1.85   300.000    1.489E+00    6.1469635E+04   -8.2261668E+02   -4.3329863E+02    6.1469643E+04    4.3330036E+02    6.1858961E+04
   -1.84   300.000    1.231E+00    6.5518730E+04   -8.3285483E+02   -4.5600896E+02    6.5518737E+04    4.5601109E+02    6.5895583E+04
   -1.83   300.000    9.877E-01    6.9386465E+04   -8.1272583E+02   -4.6528072E+02    6.9386471E+04    4.6528307E+02    6.9733916E+04
   -1.82   300.000    7.620E-01    7.3416763E+04   -7.6808760E+02   -4.6179758E+02    7.3416768E+04    4.6179998E+02    7.3723058E+04
   -1.81   300.000    5.556E-01    7.8078852E+04   -7.1179298E+02   -4.5134182E+02    7.8078857E+04    4.5134413E+02    7.8339309E+04
   -1.80   300.000    3.692E-01    8.3958761E+04   -6.5857644E+02   -4.4188182E+02    8.3958767E+04    4.4188394E+02    8.4175462E+04
   -1.79   300.000    2.023E-01    9.1704759E+04   -6.1938355E+02   -4.3970817E+02    9.1704767E+04    4.3971003E+02    9.1884442E+04
   -1.78   300.000    5.343E-02    1.0193801E+05   -5.9854657E+02   -4.4736505E+02    1.0193802E+05    4.4736653E+02    1.0208920E+05
   -1.77   300.000   -7.996E-02    1.1516366E+05   -5.9431915E+02   -4.6390358E+02    1.1516367E+05    4.6390446E+02    1.1529409E+05
   -1.76   300.000   -2.009E-01    1.3170756E+05   -6.0148223E+02   -4.8651311E+02    1.3170758E+05    4.8651313E+02    1.3182255E+05
   -1.75   300.000   -3.127E-01    1.5167224E+05   -6.1468942E+02   -5.1256334E+02    1.5167227E+05    5.1256228E+02    1.5177439E+05
   -1.74   300.000   -4.185E-01    1.7488860E+05   -6.3148827E+02   -5.4143013E+02    1.7488863E+05    5.4142790E+02    1.7497869E+05
   -1.73   300.000   -5.209E-01    2.0085322E+05   -6.5382783E+02   -5.7542370E+02    2.0085325E+05    5.7542039E+02    2.0093166E+05
   -1.72   300.000   -6.222E-01    2.2869234E+05   -6.8716584E+02   -6.1913639E+02    2.2869237E+05    6.1913222E+02    2.2876040E+05
   -1.71   300.000   -7.240E-01    2.5725863E+05   -7.3758394E+02   -6.7726439E+02    2.5725865E+05    6.7725961E+02    2.5731897E+05
   -1.70   300.000   -8.273E-01    2.8545841E+05   -8.0864149E+02   -7.5207661E+02    2.8545843E+05    7.5207138E+02    2.8551499E+05
   -1.69   300.000   -9.324E-01    3.1275080E+05   -8.9968897E+02   -8.4199823E+02    3.1275081E+05    8.4199259E+02    3.1280850E+05
   -1.68   300.000   -1.040E+00    3.3953098E+05   -1.0058134E+03   -9.4160245E+02    3.3953099E+05    9.4159636E+02    3.3959520E+05
   -1.67   300.000   -1.149E+00    3.6708481E+05   -1.1177854E+03   -1.0416258E+03    3.6708481E+05    1.0416193E+03    3.6716097E+05
   -1.66   300.000   -1.261E+00    3.9713179E+05   -1.2201310E+03   -1.1272831E+03    3.9713179E+05    1.1272763E+03    3.9722463E+05
   -1.65   300.000   -1.376E+00    4.3129912E+05   -1.2879428E+03   -1.1754484E+03    4.3129911E+05    1.1754418E+03    4.3141161E+05
   -1.64   300.000   -1.494E+00    4.7075490E+05   -1.2873323E+03   -1.1552931E+03    4.7075489E+05    1.1552875E+03    4.7088693E+05
   -1.63   300.000   -1.616E+00    5.1588305E+05   -1.1855287E+03   -1.0378998E+03    5.1588305E+05    1.0378962E+03    5.1603068E+05
   -1.62   300.000   -1.744E+00    5.6589586E+05   -9.6844265E+02   -8.1243762E+02    5.6589586E+05    8.1243727E+02    5.6605186E+05
   -1.61   300.000   -1.876E+00    6.1869062E+05   -6.4974431E+02   -4.9351975E+02    6.1869063E+05    4.9352378E+02    6.1884685E+05
   -1.60   300.000   -2.012E+00    6.7138581E+05   -2.5605742E+02   -1.0554747E+02    6.7138582E+05    1.0555678E+02    6.7153633E+05
   -1.59   300.000   -2.153E+00    7.2139936E+05    2.0141985E+02    3.4499828E+02    7.2139938E+05   -3.4498321E+02    7.2154296E+05
   -1.58   300.000   -2.297E+00    7.6726464E+05    7.3674016E+02    8.7785885E+02    7.6726467E+05   -8.7783800E+02    7.6740579E+05
   -1.57   300.000   -2.443E+00    8.0861667E+05    1.3629316E+03    1.5115633E+03    8.0861671E+05   -1.5115372E+03    8.0876534E+05
   -1.56   300.000   -2.591E+00    8.4581530E+05    2.0469654E+03    2.2181775E+03    8.4581534E+05   -2.2181469E+03    8.4598655E+05
   -1.55   300.000   -2.740E+00    8.8003942E+05    2.6819109E+03    2.8959211E+03    8.8003947E+05   -2.8958874E+03    8.8025348E+05
   -1.54   300.000   -2.889E+00    9.1372812E+05    3.1012786E+03    3.3840758E+03    9.1372818E+05   -3.3840404E+03    9.1401098E+05
   -1.53   300.000   -3.040E+00    9.5035500E+05    3.1345553E+03    3.5186504E+03    9.5035508E+05   -3.5186146E+03    9.5073917E+05
   -1.52   300.000   -3.193E+00    9.9304609E+05    2.6877479E+03    3.2121254E+03    9.9304617E+05   -3.2120900E+03    9.9357054E+05
   -1.51   300.000   -3.350E+00    1.0429196E+06    1.8209428E+03    2.5287908E+03    1.0429197E+06   -2.5287562E+03    1.0436275E+06
   -1.50   300.000   -3.512E+00    1.0985601E+06    7.6315475E+02    1.6957211E+03    1.0985602E+06   -1.6956874E+03    1.0994928E+06
   -1.49   300.000   -3.678E+00    1.1569275E+06   -1.9005169E+02    9.9573094E+02    1.1569276E+06   -9.9569836E+02    1.1581134E+06
   -1.48   300.000   -3.851E+00    1.2145778E+06   -8.4913889E+02    5.9231745E+02    1.2145779E+06   -5.9228685E+02    1.2160193E+06
   -1.47   300.000   -4.029E+00    1.2681868E+06   -1.2392717E+03    4.2531136E+02    1.2681869E+06   -4.2528401E+02    1.2698515E+06
   -1.46   300.000   -4.212E+00    1.3145550E+06   -1.5643910E+03    2.6013209E+02    1.3145551E+06   -2.6010940E+02    1.3163796E+06
   -1.45   300.000   -4.400E+00    1.3507520E+06   -2.0600209E+03   -1.4841502E+02    1.3507521E+06    1.4843186E+02    1.3526637E+06
   -1.44   300.000   -4.592E+00    1.3746268E+06   -2.8289188E+03   -8.8393372E+02    1.3746268E+06    8.8394396E+02    1.3765718E+06
   -1.43   300.000   -4.787E+00    1.3855095E+06   -3.7676130E+03   -1.8029058E+03    1.3855095E+06    1.8029091E+03    1.3874742E+06
   -1.42   300.000   -4.983E+00    1.3848047E+06   -4.6449741E+03   -2.6318924E+03    1.3848047E+06    2.6318887E+03    1.3868178E+06
   -1.41   300.000   -5.178E+00    1.3760565E+06   -5.2628301E+03   -3.1472109E+03    1.3760565E+06    3.1472002E+03    1.3781722E+06
   -1.40   300.000   -5.373E+00    1.3642010E+06   -5.5488390E+03   -3.2808506E+03    1.3642010E+06    3.2808332E+03    1.3664690E+06
   -1.39   300.000   -5.567E+00    1.3542234E+06   -5.5302102E+03   -3.0977215E+03    1.3542234E+06    3.0976983E+03    1.3566559E+06
   -1.38   300.000   -5.761E+00    1.3498008E+06   -5.2802415E+03   -2.7318767E+03    1.3498008E+06    2.7318496E+03    1.3523491E+06
   -1.37   300.000   -5.954E+00    1.3523838E+06   -4.9246071E+03   -2.3674766E+03    1.3523838E+06    2.3674478E+03    1.3549409E+06
   -1.36   300.000   -6.149E+00    1.3608590E+06   -4.6756229E+03   -2.2433104E+03    1.3608589E+06    2.2432824E+03    1.3632913E+06
   -1.35   300.000   -6.347E+00    1.3718363E+06   -4.8014829E+03   -2.6077298E+03    1.3718363E+06    2.6077048E+03    1.3740300E+06
   -1.34   300.000   -6.549E+00    1.3807006E+06   -5.4967468E+03   -3.6007663E+03    1.3807006E+06    3.6007455E+03    1.3825966E+06
   -1.33   300.000   -6.756E+00    1.3834245E+06   -6.7272238E+03   -5.1255927E+03    1.3834245E+06    5.1255761E+03    1.3850262E+06
   -1.32   300.000   -6.970E+00    1.3785254E+06   -8.1866952E+03   -6.8268108E+03    1.3785254E+06    6.8267976E+03    1.3798853E+06
   -1.31   300.000   -7.190E+00    1.3679962E+06   -9.4455314E+03   -8.2457637E+03    1.3679963E+06    8.2457529E+03    1.3691960E+06
   -1.30   300.000   -7.416E+00    1.3564684E+06   -1.0195990E+04   -9.0610898E+03    1.3564684E+06    9.0610804E+03    1.3576033E+06
   -1.29   300.000   -7.648E+00    1.3491502E+06   -1.0395229E+04   -9.2238504E+03    1.3491502E+06    9.2238419E+03    1.3503216E+06
   -1.28   300.000   -7.884E+00    1.3498495E+06   -1.0213749E+04   -8.9014139E+03    1.3498496E+06    8.9014064E+03    1.3511619E+06
   -1.27   300.000   -8.126E+00    1.3599440E+06   -9.8692252E+03   -8.3129455E+03    1.3599441E+06    8.3129394E+03    1.3615004E+06
   -1.26   300.000   -8.370E+00    1.3784077E+06   -9.4819020E+03   -7.5923260E+03    1.3784078E+06    7.5923224E+03    1.3802974E+06
   -1.25   300.000   -8.616E+00    1.4027359E+06   -9.0283722E+03   -6.7519328E+03    1.4027360E+06    6.7519330E+03    1.4050124E+06
   -1.24   300.000   -8.862E+00    1.4305279E+06   -8.3797382E+03   -5.7261494E+03    1.4305280E+06    5.7261550E+03    1.4331816E+06
   -1.23   300.000   -9.108E+00    1.4610471E+06   -7.3672995E+03   -4.4281398E+03    1.4610472E+06    4.4281526E+03    1.4639864E+06
   -1.22   300.000   -9.352E+00    1.4955407E+06   -5.8469474E+03   -2.7869144E+03    1.4955408E+06    2.7869365E+03    1.4986009E+06
   -1.21   300.000   -9.595E+00    1.5356344E+06   -3.7612957E+03   -7.7586469E+02    1.5356345E+06    7.7589737E+02    1.5386199E+06
   -1.20   300.000   -9.837E+00    1.5810695E+06   -1.1785287E+03    1.5636180E+03    1.5810696E+06   -1.5635743E+03    1.5838117E+06
   -1.19   300.000   -1.008E+01    1.6293596E+06    1.7244381E+03    4.1228805E+03    1.6293597E+06   -4.1228270E+03    1.6317582E+06
   -1.18   300.000   -1.032E+01    1.6783879E+06    4.7331199E+03    6.7640081E+03    1.6783880E+06   -6.7639477E+03    1.6804189E+06
   -1.17   300.000   -1.056E+01    1.7298168E+06    7.6779389E+03    9.3771934E+03    1.7298169E+06   -9.3771303E+03    1.7315162E+06
   -1.16   300.000   -1.081E+01    1.7900142E+06    1.0465583E+04    1.1906047E+04    1.7900142E+06   -1.1905986E+04    1.7914547E+06
   -1.15   300.000   -1.105E+01    1.8672532E+06    1.3022161E+04    1.4297315E+04    1.8672533E+06   -1.4297258E+04    1.8685284E+06
   -1.14   300.000   -1.130E+01    1.9669520E+06    1.5192562E+04    1.6408611E+04    1.9669521E+06   -1.6408561E+04    1.9681681E+06
   -1.13   300.000   -1.156E+01    2.0879922E+06    1.6708923E+04    1.7981455E+04    2.0879922E+06   -1.7981413E+04    2.0892648E+06
   -1.12   300.000   -1.183E+01    2.2221037E+06    1.7299939E+04    1.8750586E+04    2.2221038E+06   -1.8750550E+04    2.2235544E+06
   -1.11   300.000   -1.211E+01    2.3562228E+06    1.6878652E+04    1.8627433E+04    2.3562228E+06   -1.8627404E+04    2.3579716E+06
   -1.10   300.000   -1.239E+01    2.4762717E+06    1.5654490E+04    1.7803582E+04    2.4762717E+06   -1.7803556E+04    2.4784208E+06
   -1.09   300.000   -1.268E+01    2.5706521E+06    1.4063509E+04    1.6670330E+04    2.5706521E+06   -1.6670305E+04    2.5732589E+06
   -1.08   300.000   -1.298E+01    2.6324106E+06    1.2542862E+04    1.5587600E+04    2.6324106E+06   -1.5587574E+04    2.6354554E+06
   -1.07   300.000   -1.328E+01    2.6597302E+06    1.1279958E+04    1.4643989E+04    2.6597302E+06   -1.4643961E+04    2.6630943E+06
   -1.06   300.000   -1.359E+01    2.6549805E+06    1.0100217E+04    1.3577177E+04    2.6549805E+06   -1.3577146E+04    2.6584574E+06
   -1.05   300.000   -1.389E+01    2.6230539E+06    8.5857625E+03    1.1932955E+04    2.6230539E+06   -1.1932922E+04    2.6264011E+06
   -1.04   300.000   -1.420E+01    2.5699418E+06    6.3434026E+03    9.3519445E+03    2.5699418E+06   -9.3519125E+03    2.5729503E+06
   -1.03   300.000   -1.450E+01    2.5023438E+06    3.2223579E+03    5.7684825E+03    2.5023438E+06   -5.7684542E+03    2.5048899E+06
   -1.02   300.000   -1.481E+01    2.4282780E+06   -6.3639551E+02    1.4195435E+03    2.4282779E+06   -1.4195219E+03    2.4303339E+06
   -1.01   300.000   -1.511E+01    2.3576422E+06   -4.8649525E+03   -3.2527463E+03    2.3576422E+06    3.2527595E+03    2.3592544E+06
   -1.00   300.000   -1.540E+01    2.3016794E+06   -8.9513715E+03   -7.6946593E+03    2.3016794E+06    7.6946638E+03    2.3029361E+06
   -0.99   300.000   -1.570E+01    2.2711824E+06   -1.2341132E+04   -1.1336141E+04    2.2711823E+06    1.1336138E+04    2.2721873E+06
   -0.98   300.000   -1.599E+01    2.2739753E+06   -1.4599233E+04   -1.3741130E+04    2.2739753E+06    1.3741120E+04    2.2748334E+06
   -0.97   300.000   -1.629E+01    2.3125815E+06   -1.5613698E+04   -1.4801062E+04    2.3125815E+06    1.4801046E+04    2.3133941E+06
   -0.96   300.000   -1.658E+01    2.3831979E+06   -1.5743814E+04   -1.4877300E+04    2.3831979E+06    1.4877281E+04    2.3840644E+06
   -0.95   300.000   -1.688E+01    2.4766559E+06   -1.5748314E+04   -1.4727635E+04    2.4766559E+06    1.4727614E+04    2.4776766E+06
   -0.94   300.000   -1.719E+01    2.5808469E+06   -1.6404136E+04   -1.5127048E+04    2.5808469E+06    1.5127028E+04    2.5821240E+06
   -0.93   300.000   -1.751E+01    2.6832343E+06   -1.8022789E+04   -1.6389446E+04    2.6832343E+06    1.6389429E+04    2.6848676E+06
   -0.92   300.000   -1.784E+01    2.7724433E+06   -2.0234345E+04   -1.8159339E+04    2.7724433E+06    1.8159327E+04    2.7745183E+06
   -0.91   300.000   -1.817E+01    2.8388570E+06   -2.2164330E+04   -1.9595462E+04    2.8388570E+06    1.9595458E+04    2.8414259E+06
   -0.90   300.000   -1.851E+01    2.8748330E+06   -2.2812187E+04   -1.9749583E+04    2.8748329E+06    1.9749585E+04    2.8778956E+06
   -0.89   300.000   -1.886E+01    2.8754301E+06   -2.1405572E+04   -1.7910842E+04    2.8754301E+06    1.7910848E+04    2.8789248E+06
   -0.88   300.000   -1.921E+01    2.8399690E+06   -1.7629293E+04   -1.3817447E+04    2.8399690E+06    1.3817452E+04    2.8437808E+06
   -0.87   300.000   -1.956E+01    2.7734648E+06   -1.1713792E+04   -7.7290296E+03    2.7734648E+06    7.7290322E+03    2.7774496E+06
   -0.86   300.000   -1.992E+01    2.6865609E+06   -4.3921332E+03   -3.7411280E+02    2.6865609E+06    3.7411041E+02    2.6905789E+06
   -0.85   300.000   -2.028E+01    2.5937301E+06    3.2673690E+03    7.2192368E+03    2.5937301E+06   -7.2192447E+03    2.5976820E+06
   -0.84   300.000   -2.063E+01    2.5105307E+06    1.0127824E+04    1.3981228E+04    2.5105307E+06   -1.3981240E+04    2.5143841E+06
   -0.83   300.000   -2.099E+01    2.4505979E+06    1.5279856E+04    1.9074547E+04    2.4505979E+06   -1.9074561E+04    2.4543926E+06
   -0.82   300.000   -2.135E+01    2.4230042E+06    1.8262916E+04    2.2089558E+04    2.4230042E+06   -2.2089571E+04    2.4268309E+06
   -0.81   300.000   -2.171E+01    2.4309549E+06    1.9137072E+04    2.3101449E+04    2.4309550E+06   -2.3101458E+04    2.4349193E+06
   -0.80   300.000   -2.208E+01    2.4723690E+06    1.8408020E+04    2.2600143E+04    2.4723691E+06   -2.2600147E+04    2.4765612E+06
   -0.79   300.000   -2.245E+01    2.5418190E+06    1.6831633E+04    2.1313238E+04    2.5418190E+06   -2.1313235E+04    2.5463006E+06
   -0.78   300.000   -2.282E+01    2.6327878E+06    1.5120505E+04    1.9929677E+04    2.6327879E+06   -1.9929669E+04    2.6375970E+06
   -0.77   300.000   -2.320E+01    2.7393222E+06    1.3657311E+04    1.8816620E+04    2.7393223E+06   -1.8816610E+04    2.7444816E+06
   -0.76   300.000   -2.358E+01    2.8564037E+06    1.2393103E+04    1.7907341E+04    2.8564038E+06   -1.7907332E+04    2.8619180E+06
   -0.75   300.000   -2.398E+01    2.9791729E+06    1.1015619E+04    1.6858228E+04    2.9791730E+06   -1.6858224E+04    2.9850156E+06
   -0.74   300.000   -2.438E+01    3.1024045E+06    9.2832502E+03    1.5385255E+04    3.1024045E+06   -1.5385258E+04    3.1085065E+06
   -0.73   300.000   -2.479E+01    3.2215226E+06    7.2922277E+03    1.3546144E+04    3.2215226E+06   -1.3546156E+04    3.2277765E+06
   -0.72   300.000   -2.521E+01    3.3343739E+06    5.4702615E+03    1.1744674E+04    3.3343739E+06   -1.1744694E+04    3.3406484E+06
   -0.71   300.000   -2.564E+01    3.4413957E+06    4.2949601E+03    1.0448332E+04    3.4413958E+06   -1.0448356E+04    3.4475491E+06
   -0.70   300.000   -2.608E+01    3.5431407E+06    3.9663836E+03    9.8627226E+03    3.5431408E+06   -9.8627487E+03    3.5490372E+06
   -0.69   300.000   -2.653E+01    3.6372871E+06    4.2783675E+03    9.8166125E+03    3.6372872E+06   -9.8166385E+03    3.6428255E+06
   -0.68   300.000   -2.698E+01    3.7184981E+06    4.7307625E+03    9.8833744E+03    3.7184982E+06   -9.8833995E+03    3.7236508E+06
   -0.67   300.000   -2.744E+01    3.7818780E+06    4.7369055E+03    9.5733306E+03    3.7818781E+06   -9.5733553E+03    3.7867146E+06
   -0.66   300.000   -2.790E+01    3.8269981E+06    3.7850349E+03    8.4607009E+03    3.8269982E+06   -8.4607263E+03    3.8316738E+06
   -0.65   300.000   -2.837E+01    3.8587290E+06    1.5602474E+03    6.2728000E+03    3.8587290E+06   -6.2728276E+03    3.8634416E+06
   -0.64   300.000   -2.884E+01    3.8842008E+06   -1.9055767E+03    3.0225461E+03    3.8842009E+06   -3.0225772E+03    3.8891290E+06
   -0.63   300.000   -2.931E+01    3.9087179E+06   -6.1170854E+03   -8.7311105E+02    3.9087179E+06    8.7307581E+02    3.9139619E+06
   -0.62   300.000   -2.978E+01    3.9338508E+06   -1.0194271E+04   -4.6474913E+03    3.9338508E+06    4.6474517E+03    3.9393976E+06
   -0.61   300.000   -3.025E+01    3.9583035E+06   -1.3202070E+04   -7.4669903E+03    3.9583034E+06    7.4669464E+03    3.9640385E+06
   -0.60   300.000   -3.072E+01    3.9796117E+06   -1.4583657E+04   -8.8148309E+03    3.9796116E+06    8.8147827E+03    3.9853804E+06
   -0.59   300.000   -3.119E+01    3.9948919E+06   -1.4423035E+04   -8.7359653E+03    3.9948918E+06    8.7359129E+03    4.0005789E+06
   -0.58   300.000   -3.167E+01    4.0010023E+06   -1.3319365E+04   -7.7420239E+03    4.0010022E+06    7.7419676E+03    4.0065795E+06
   -0.57   300.000   -3.214E+01    3.9954427E+06   -1.1933405E+04   -6.4127913E+03    3.9954426E+06    6.4127319E+03    4.0009633E+06
   -0.56   300.000   -3.260E+01    3.9779403E+06   -1.0568662E+04   -5.0157129E+03    3.9779402E+06    5.0156519E+03    3.9834931E+06
   -0.55   300.000   -3.307E+01    3.9511896E+06   -9.1291975E+03   -3.4657701E+03    3.9511896E+06    3.4657094E+03    3.9568530E+06
   -0.54   300.000   -3.354E+01    3.9198188E+06   -7.4117280E+03   -1.5967295E+03    3.9198187E+06    1.5966718E+03    3.9256337E+06
   -0.53   300.000   -3.400E+01    3.8885901E+06   -5.3694495E+03    5.9182772E+02    3.8885901E+06   -5.9187934E+02    3.8945513E+06
   -0.52   300.000   -3.447E+01    3.8615425E+06   -3.1009198E+03    2.9465558E+03    3.8615425E+06   -2.9465984E+03    3.8675900E+06
   -0.51   300.000   -3.493E+01    3.8422330E+06   -6.8705673E+02    5.3230709E+03    3.8422330E+06   -5.3231023E+03    3.8482431E+06
   -0.50   300.000   -3.539E+01    3.8337087E+06    1.8682045E+03    7.6645386E+03    3.8337087E+06   -7.6645581E+03    3.8395050E+06
   -0.49   300.000   -3.585E+01    3.8374330E+06    4.5550517E+03    9.9533702E+03    3.8374331E+06   -9.9533789E+03    3.8428314E+06
   -0.48   300.000   -3.632E+01    3.8518654E+06    7.2877533E+03    1.2160377E+04    3.8518655E+06   -1.2160377E+04    3.8567381E+06
   -0.47   300.000   -3.678E+01    3.8719711E+06    9.9344888E+03    1.4257072E+04    3.8719712E+06   -1.4257066E+04    3.8762937E+06
   -0.46   300.000   -3.725E+01    3.8906072E+06    1.2381747E+04    1.6240168E+04    3.8906073E+06   -1.6240160E+04    3.8944657E+06
   -0.45   300.000   -3.772E+01    3.9016587E+06    1.4539588E+04    1.8105337E+04    3.9016588E+06   -1.8105329E+04    3.9052245E+06
   -0.44   300.000   -3.819E+01    3.9031899E+06    1.6263189E+04    1.9759192E+04    3.9031900E+06   -1.9759187E+04    3.9066860E+06
   -0.43   300.000   -3.866E+01    3.8982665E+06    1.7251099E+04    2.0921253E+04    3.8982666E+06   -2.0921252E+04    3.9019367E+06
   -0.42   300.000   -3.913E+01    3.8927090E+06    1.7054369E+04    2.1137002E+04    3.8927091E+06   -2.1137007E+04    3.8967917E+06
   -0.41   300.000   -3.960E+01    3.8914048E+06    1.5302277E+04    2.0004244E+04    3.8914048E+06   -2.0004255E+04    3.8961068E+06
   -0.40   300.000   -4.006E+01    3.8954934E+06    1.2055850E+04    1.7529954E+04    3.8954934E+06   -1.7529973E+04    3.9009676E+06
   -0.39   300.000   -4.051E+01    3.9017432E+06    7.9887404E+03    1.4324321E+04    3.9017432E+06   -1.4324345E+04    3.9080788E+06
   -0.38   300.000   -4.097E+01    3.9041421E+06    4.1104489E+03    1.1345320E+04    3.9041420E+06   -1.1345349E+04    3.9113769E+06
   -0.37   300.000   -4.141E+01    3.8966700E+06    1.1138714E+03    9.2600339E+03    3.8966699E+06   -9.2600664E+03    3.9048160E+06
   -0.36   300.000   -4.185E+01    3.8759823E+06   -1.1044282E+03    7.9518651E+03    3.8759822E+06   -7.9518992E+03    3.8850385E+06
   -0.35   300.000   -4.229E+01    3.8435349E+06   -3.2611315E+03    6.6676384E+03    3.8435347E+06   -6.6676725E+03    3.8534635E+06
   -0.34   300.000   -4.271E+01    3.8067694E+06   -6.0414860E+03    4.6404769E+03    3.8067693E+06   -4.6405098E+03    3.8174513E+06
   -0.33   300.000   -4.313E+01    3.7778245E+06   -9.6457018E+03    1.5715562E+03    3.7778243E+06   -1.5715869E+03    3.7890416E+06
   -0.32   300.000   -4.354E+01    3.7689528E+06   -1.3828709E+04   -2.3440539E+03    3.7689527E+06    2.3440262E+03    3.7804373E+06
   -0.31   300.000   -4.395E+01    3.7872625E+06   -1.8205170E+04   -6.6750360E+03    3.7872624E+06    6.6750119E+03    3.7987925E+06
   -0.30   300.000   -4.435E+01    3.8328234E+06   -2.2499924E+04   -1.1013856E+04    3.8328234E+06    1.1013837E+04    3.8443094E+06
   -0.29   300.000   -4.475E+01    3.9009564E+06   -2.6582612E+04   -1.5064841E+04    3.9009564E+06    1.5064828E+04    3.9124742E+06
   -0.28   300.000   -4.514E+01    3.9857174E+06   -3.0271149E+04   -1.8513350E+04    3.9857174E+06    1.8513345E+04    3.9974752E+06
   -0.27   300.000   -4.554E+01    4.0814181E+06   -3.3047931E+04   -2.0804544E+04    4.0814182E+06    2.0804549E+04    4.0936616E+06
   -0.26   300.000   -4.593E+01    4.1814458E+06   -3.3958364E+04   -2.1087775E+04    4.1814460E+06    2.1087791E+04    4.1943166E+06
   -0.25   300.000   -4.633E+01    4.2760282E+06   -3.1895391E+04   -1.8498378E+04    4.2760284E+06    1.8498405E+04    4.2894254E+06
   -0.24   300.000   -4.673E+01    4.3519568E+06   -2.6207083E+04   -1.2684762E+04    4.3519570E+06    1.2684798E+04    4.3654793E+06
   -0.23   300.000   -4.713E+01    4.3963534E+06   -1.7276426E+04   -4.2499262E+03    4.3963536E+06    4.2499691E+03    4.4093801E+06
   -0.22   300.000   -4.753E+01    4.4027505E+06   -6.6460953E+03    5.2378077E+03    4.4027507E+06   -5.2377608E+03    4.4146346E+06
   -0.21   300.000   -4.794E+01    4.3744962E+06    3.4711180E+03    1.3742429E+04    4.3744964E+06   -1.3742382E+04    4.3847677E+06
   -0.20   300.000   -4.835E+01    4.3223755E+06    1.1032074E+04    1.9502398E+04    4.3223757E+06   -1.9502354E+04    4.3308460E+06
   -0.19   300.000   -4.876E+01    4.2590839E+06    1.4884773E+04    2.1628343E+04    4.2590840E+06   -2.1628305E+04    4.2658276E+06
   -0.18   300.000   -4.917E+01    4.1956698E+06    1.5011196E+04    2.0271877E+04    4.1956699E+06   -2.0271846E+04    4.2009306E+06
   -0.17   300.000   -4.958E+01    4.1412117E+06    1.2249774E+04    1.6340455E+04    4.1412118E+06   -1.6340432E+04    4.1453025E+06
   -0.16   300.000   -4.999E+01    4.1026822E+06    7.8287586E+03    1.1062517E+04    4.1026823E+06   -1.1062500E+04    4.1059160E+06
   -0.15   300.000   -5.041E+01    4.0829123E+06    3.0405792E+03    5.7006435E+03    4.0829123E+06   -5.7006298E+03    4.0855724E+06
   -0.14   300.000   -5.082E+01    4.0782258E+06   -1.0090997E+03    1.3275555E+03    4.0782258E+06   -1.3275424E+03    4.0805625E+06
   -0.13   300.000   -5.124E+01    4.0783025E+06   -3.7096291E+03   -1.4720581E+03    4.0783025E+06    1.4720717E+03    4.0805400E+06
   -0.12   300.000   -5.166E+01    4.0688721E+06   -5.0772483E+03   -2.7368187E+03    4.0688721E+06    2.7368326E+03    4.0712125E+06
   -0.11   300.000   -5.209E+01    4.0362028E+06   -5.4785456E+03   -2.8630561E+03    4.0362028E+06    2.8630691E+03    4.0388183E+06
   -0.10   300.000   -5.252E+01    3.9721153E+06   -5.1991392E+03   -2.1859956E+03    3.9721153E+06    2.1860061E+03    3.9751284E+06
   -0.09   300.000   -5.296E+01    3.8778827E+06   -4.2942927E+03   -8.3667629E+02    3.8778826E+06    8.3668348E+02    3.8813402E+06
   -0.08   300.000   -5.342E+01    3.7646882E+06   -2.7831056E+03    1.0738052E+03    3.7646882E+06   -1.0738015E+03    3.7685451E+06
   -0.07   300.000   -5.388E+01    3.6495388E+06   -8.8472797E+02    3.2483288E+03    3.6495388E+06   -3.2483279E+03    3.6536718E+06
   -0.06   300.000   -5.436E+01    3.5488624E+06    9.8064611E+02    5.2389287E+03    3.5488623E+06   -5.2389291E+03    3.5531206E+06
   -0.05   300.000   -5.486E+01    3.4737506E+06    2.4293613E+03    6.6979234E+03    3.4737505E+06   -6.6979238E+03    3.4780191E+06
   -0.04   300.000   -5.537E+01    3.4288841E+06    3.3431326E+03    7.5829191E+03    3.4288841E+06   -7.5829190E+03    3.4331239E+06
   -0.03   300.000   -5.591E+01    3.4142499E+06    3.8794820E+03    8.1239911E+03    3.4142499E+06   -8.1239913E+03    3.4184944E+06
   -0.02   300.000   -5.646E+01    3.4275528E+06    4.3368339E+03    8.6588288E+03    3.4275528E+06   -8.6588312E+03    3.4318748E+06
   -0.01   300.000   -5.704E+01    3.4655627E+06    5.0357443E+03    9.5137576E+03    3.4655627E+06   -9.5137647E+03    3.4700407E+06
    0.00   300.000   -5.764E+01    3.5238117E+06    6.1632659E+03    1.0867518E+04    3.5238117E+06   -1.0867532E+04    3.5285160E+06
    0.01   300.000   -5.825E+01    3.5957427E+06    7.4867564E+03    1.2480283E+04    3.5957428E+06   -1.2480304E+04    3.6007363E+06
    0.02   300.000   -5.887E+01    3.6730557E+06    8.1868969E+03    1.3522085E+04    3.6730558E+06   -1.3522111E+04    3.6783910E+06
    0.03   300.000   -5.951E+01    3.7474344E+06    7.1970085E+03    1.2895053E+04    3.7474345E+06   -1.2895083E+04    3.7531325E+06
    0.04   300.000   -6.015E+01    3.8119593E+06    3.9197304E+03    9.9445337E+03    3.8119593E+06   -9.9445616E+03    3.8179841E+06
    0.05   300.000   -6.079E+01    3.8609516E+06   -1.3125588E+03    4.9421506E+03    3.8609516E+06   -4.9421725E+03    3.8672063E+06
    0.06   300.000   -6.144E+01    3.8892048E+06   -7.4390545E+03   -1.0761418E+03    3.8892048E+06    1.0761294E+03    3.8955677E+06
    0.07   300.000   -6.210E+01    3.8924535E+06   -1.3348494E+04   -6.9641223E+03    3.8924535E+06    6.9641209E+03    3.8988379E+06
    0.08   300.000   -6.275E+01    3.8693134E+06   -1.8528672E+04   -1.2125891E+04    3.8693133E+06    1.2125900E+04    3.8757161E+06
    0.09   300.000   -6.340E+01    3.8228621E+06   -2.3250698E+04   -1.6735531E+04    3.8228621E+06    1.6735548E+04    3.8293772E+06
    0.10   300.000   -6.405E+01    3.7599620E+06   -2.8180020E+04   -2.1387355E+04    3.7599620E+06    2.1387377E+04    3.7667546E+06
    0.11   300.000   -6.470E+01    3.6886527E+06   -3.3707601E+04   -2.6460448E+04    3.6886527E+06    2.6460471E+04    3.6958998E+06
    0.12   300.000   -6.534E+01    3.6160806E+06   -3.9525883E+04   -3.1715773E+04    3.6160805E+06    3.1715795E+04    3.6238906E+06
    0.13   300.000   -6.598E+01    3.5485808E+06   -4.4805737E+04   -3.6467092E+04    3.5485807E+06    3.6467112E+04    3.5569194E+06
    0.14   300.000   -6.662E+01    3.4925543E+06   -4.8806137E+04   -4.0145303E+04    3.4925543E+06    4.0145319E+04    3.5012151E+06
    0.15   300.000   -6.726E+01    3.4536936E+06   -5.1378152E+04   -4.2732224E+04    3.4536936E+06    4.2732236E+04    3.4623396E+06
    0.16   300.000   -6.791E+01    3.4343729E+06   -5.3027215E+04   -4.4769340E+04    3.4343729E+06    4.4769347E+04    3.4426308E+06
    0.17   300.000   -6.858E+01    3.4316137E+06   -5.4634645E+04   -4.7076602E+04    3.4316138E+06    4.7076604E+04    3.4391719E+06
    0.18   300.000   -6.926E+01    3.4380419E+06   -5.7063980E+04   -5.0401871E+04    3.4380420E+06    5.0401867E+04    3.4447041E+06
    0.19   300.000   -6.996E+01    3.4460974E+06   -6.0793954E+04   -5.5107207E+04    3.4460976E+06    5.5107198E+04    3.4517843E+06
    0.20   300.000   -7.067E+01    3.4531098E+06   -6.5717817E+04   -6.0998621E+04    3.4531099E+06    6.0998609E+04    3.4578291E+06
    0.21   300.000   -7.140E+01    3.4632639E+06   -7.1201349E+04   -6.7385151E+04    3.4632640E+06    6.7385136E+04    3.4670802E+06
    0.22   300.000   -7.214E+01    3.4843370E+06   -7.6346652E+04   -7.3331005E+04    3.4843371E+06    7.3330989E+04    3.4873528E+06
    0.23   300.000   -7.289E+01    3.5219361E+06   -8.0364011E+04   -7.8020169E+04    3.5219362E+06    7.8020154E+04    3.5242800E+06
    0.24   300.000   -7.364E+01    3.5762940E+06   -8.2973507E+04   -8.1157709E+04    3.5762940E+06    8.1157699E+04    3.5781098E+06
    0.25   300.000   -7.439E+01    3.6432570E+06   -8.4679989E+04   -8.3244903E+04    3.6432571E+06    8.3244900E+04    3.6446922E+06
    0.26   300.000   -7.514E+01    3.7165886E+06   -8.6701325E+04   -8.5504209E+04    3.7165887E+06    8.5504218E+04    3.7177858E+06
    0.27   300.000   -7.590E+01    3.7888412E+06   -9.0460173E+04   -8.9365664E+04    3.7888413E+06    8.9365686E+04    3.7899358E+06
    0.28   300.000   -7.666E+01    3.8515732E+06   -9.6826249E+04   -9.5704604E+04    3.8515733E+06    9.5704642E+04    3.8526949E+06
    0.29   300.000   -7.742E+01    3.8969696E+06   -1.0552862E+05   -1.0425208E+05    3.8969697E+06    1.0425213E+05    3.8982463E+06
    0.30   300.000   -7.819E+01    3.9203405E+06   -1.1511796E+05   -1.1355810E+05    3.9203406E+06    1.1355817E+05    3.9219005E+06
    0.31   300.000   -7.898E+01    3.9209349E+06   -1.2349575E+05   -1.2152382E+05    3.9209351E+06    1.2152390E+05    3.9229070E+06
    0.32   300.000   -7.977E+01    3.9003099E+06   -1.2868135E+05   -1.2617096E+05    3.9003101E+06    1.2617104E+05    3.9028205E+06
    0.33   300.000   -8.056E+01    3.8602822E+06   -1.2949157E+05   -1.2632034E+05    3.8602824E+06    1.2632043E+05    3.8634537E+06
    0.34   300.000   -8.136E+01    3.8025218E+06   -1.2596638E+05   -1.2201278E+05    3.8025220E+06    1.2201286E+05    3.8064756E+06
    0.35   300.000   -8.216E+01    3.7300029E+06   -1.1938153E+05   -1.1451965E+05    3.7300032E+06    1.1451973E+05    3.7348651E+06
    0.36   300.000   -8.295E+01    3.6491158E+06   -1.1176759E+05   -1.0587176E+05    3.6491161E+06    1.0587182E+05    3.6550119E+06
    0.37   300.000   -8.373E+01    3.5705869E+06   -1.0515196E+05   -9.8122728E+04    3.5705871E+06    9.8122776E+04    3.5776164E+06
    0.38   300.000   -8.451E+01    3.5077683E+06   -1.0088884E+05   -9.2695341E+04    3.5077686E+06    9.2695377E+04    3.5159621E+06
    0.39   300.000   -8.528E+01    3.4727115E+06   -9.9330647E+04   -9.0046594E+04    3.4727117E+06    9.0046618E+04    3.4819958E+06
    0.40   300.000   -8.605E+01    3.4722568E+06   -9.9937375E+04   -8.9750022E+04    3.4722570E+06    8.9750036E+04    3.4824444E+06
    0.41   300.000   -8.682E+01    3.5063619E+06   -1.0170817E+05   -9.0899001E+04    3.5063621E+06    9.0899008E+04    3.5171712E+06
    0.42   300.000   -8.760E+01    3.5692466E+06   -1.0362182E+05   -9.2529712E+04    3.5692467E+06    9.2529711E+04    3.5803388E+06
    0.43   300.000   -8.839E+01    3.6521509E+06   -1.0484806E+05   -9.3823567E+04    3.6521511E+06    9.3823559E+04    3.6631756E+06
    0.44   300.000   -8.919E+01    3.7458474E+06   -1.0475617E+05   -9.4115764E+04    3.7458475E+06    9.4115749E+04    3.7564879E+06
    0.45   300.000   -9.001E+01    3.8419612E+06   -1.0286741E+05   -9.2859172E+04    3.8419613E+06    9.2859149E+04    3.8519695E+06
    0.46   300.000   -9.084E+01    3.9336155E+06   -9.8862428E+04   -8.9645342E+04    3.9336155E+06    8.9645312E+04    3.9428326E+06
    0.47   300.000   -9.168E+01    4.0162117E+06   -9.2738187E+04   -8.4367647E+04    4.0162117E+06    8.4367612E+04    4.0245822E+06
    0.48   300.000   -9.253E+01    4.0881207E+06   -8.5110944E+04   -7.7531345E+04    4.0881207E+06    7.7531306E+04    4.0957003E+06
    0.49   300.000   -9.338E+01    4.1503194E+06   -7.7384224E+04   -7.0444498E+04    4.1503195E+06    7.0444458E+04    4.1572592E+06
    0.50   300.000   -9.425E+01    4.2045486E+06   -7.1418112E+04   -6.4922390E+04    4.2045487E+06    6.4922352E+04    4.2110444E+06
    0.51   300.000   -9.514E+01    4.2508122E+06   -6.8751024E+04   -6.2534049E+04    4.2508123E+06    6.2534015E+04    4.2570293E+06
    0.52   300.000   -9.604E+01    4.2859221E+06   -6.9887420E+04   -6.3882503E+04    4.2859222E+06    6.3882475E+04    4.2919271E+06
    0.53   300.000   -9.695E+01    4.3042949E+06   -7.4084254E+04   -6.8347407E+04    4.3042950E+06    6.8347386E+04    4.3100318E+06
    0.54   300.000   -9.788E+01    4.3004364E+06   -7.9618865E+04   -7.4293338E+04    4.3004365E+06    7.4293324E+04    4.3057620E+06
    0.55   300.000   -9.883E+01    4.2713060E+06   -8.4283987E+04   -7.9525945E+04    4.2713062E+06    7.9525936E+04    4.2760642E+06
    0.56   300.000   -9.979E+01    4.2171758E+06   -8.5977964E+04   -8.1887268E+04    4.2171759E+06    8.1887262E+04    4.2212666E+06
    0.57   300.000   -1.008E+02    4.1410269E+06   -8.3362337E+04   -7.9951128E+04    4.1410269E+06    7.9951123E+04    4.1444381E+06
    0.58   300.000   -1.017E+02    4.0476741E+06   -7.6392603E+04   -7.3593732E+04    4.0476742E+06    7.3593727E+04    4.0504730E+06
    0.59   300.000   -1.027E+02    3.9436155E+06   -6.6383173E+04   -6.4080425E+04    3.9436156E+06    6.4080420E+04    3.9459183E+06
    0.60   300.000   -1.037E+02    3.8371742E+06   -5.5458899E+04   -5.3520147E+04    3.8371742E+06    5.3520143E+04    3.8391130E+06
    0.61   300.000   -1.047E+02    3.7375969E+06   -4.5645463E+04   -4.3948097E+04    3.7375969E+06    4.3948097E+04    3.7392943E+06
    0.62   300.000   -1.056E+02    3.6527213E+06   -3.8148834E+04   -3.6594325E+04    3.6527214E+06    3.6594331E+04    3.6542759E+06
    0.63   300.000   -1.066E+02    3.5864194E+06   -3.3281284E+04   -3.1799912E+04    3.5864194E+06    3.1799926E+04    3.5879008E+06
    0.64   300.000   -1.076E+02    3.5373264E+06   -3.0948433E+04   -2.9496813E+04    3.5373265E+06    2.9496834E+04    3.5387781E+06
    0.65   300.000   -1.085E+02    3.4993272E+06   -3.1110721E+04   -2.9664694E+04    3.4993273E+06    2.9664720E+04    3.5007733E+06
    0.66   300.000   -1.095E+02    3.4632893E+06   -3.3768001E+04   -3.2313385E+04    3.4632894E+06    3.2313415E+04    3.4647440E+06
    0.67   300.000   -1.104E+02    3.4194525E+06   -3.8615907E+04   -3.7140528E+04    3.4194526E+06    3.7140558E+04    3.4209280E+06
    0.68   300.000   -1.113E+02    3.3600686E+06   -4.4835483E+04   -4.3325662E+04    3.3600687E+06    4.3325689E+04    3.3615786E+06
    0.69   300.000   -1.122E+02    3.2815903E+06   -5.1198235E+04   -4.9639907E+04    3.2815904E+06    4.9639929E+04    3.2831488E+06
    0.70   300.000   -1.131E+02    3.1854251E+06   -5.6304943E+04   -5.4687040E+04    3.1854253E+06    5.4687053E+04    3.1870432E+06
    0.71   300.000   -1.139E+02    3.0767563E+06   -5.8833004E+04   -5.7151394E+04    3.0767565E+06    5.7151398E+04    3.0784381E+06
    0.72   300.000   -1.148E+02    2.9620007E+06   -5.7858056E+04   -5.6119350E+04    2.9620008E+06    5.6119346E+04    2.9637396E+06
    0.73   300.000   -1.156E+02    2.8463925E+06   -5.3183413E+04   -5.1406546E+04    2.8463926E+06    5.1406535E+04    2.8481695E+06
    0.74   300.000   -1.164E+02    2.7330641E+06   -4.5424359E+04   -4.3637406E+04    2.7330642E+06    4.3637390E+04    2.7348512E+06
    0.75   300.000   -1.172E+02    2.6235901E+06   -3.5767463E+04   -3.4000461E+04    2.6235903E+06    3.4000443E+04    2.6253573E+06
    0.76   300.000   -1.179E+02    2.5187683E+06   -2.5611687E+04   -2.3889363E+04    2.5187685E+06    2.3889344E+04    2.5204908E+06
    0.77   300.000   -1.186E+02    2.4189170E+06   -1.6279359E+04   -1.4616717E+04    2.4189171E+06    1.4616699E+04    2.4205797E+06
    0.78   300.000   -1.193E+02    2.3240708E+06   -8.7791250E+03   -7.1804820E+03    2.3240709E+06    7.1804652E+03    2.3256696E+06
    0.79   300.000   -1.199E+02    2.2344238E+06   -3.5817375E+03   -2.0434034E+03    2.2344239E+06    2.0433889E+03    2.2359622E+06
    0.80   300.000   -1.205E+02    2.1507243E+06   -5.1024613E+02    9.7294287E+02    2.1507244E+06   -9.7295482E+02    2.1522075E+06
    0.81   300.000   -1.211E+02    2.0742782E+06    1.1405655E+03    2.5667597E+03    2.0742783E+06   -2.5667690E+03    2.0757045E+06
    0.82   300.000   -1.216E+02    2.0066434E+06    2.2888069E+03    3.6430699E+03    2.0066434E+06   -3.6430764E+03    2.0079977E+06
    0.83   300.000   -1.222E+02    1.9493487E+06    3.7048383E+03    4.9597230E+03    1.9493488E+06   -4.9597264E+03    1.9506037E+06
    0.84   300.000   -1.227E+02    1.9038228E+06    5.7463517E+03    6.8699976E+03    1.9038228E+06   -6.8699971E+03    1.9049465E+06
    0.85   300.000   -1.231E+02    1.8713754E+06    8.2453910E+03    9.2132338E+03    1.8713755E+06   -9.2132289E+03    1.8723433E+06
    0.86   300.000   -1.236E+02    1.8530584E+06    1.0545396E+04    1.1349036E+04    1.8530585E+06   -1.1349027E+04    1.8538621E+06
    0.87   300.000   -1.240E+02    1.8496985E+06    1.1722944E+04    1.2372008E+04    1.8496985E+06   -1.2371993E+04    1.8503476E+06
    0.88   300.000   -1.245E+02    1.8625049E+06    1.1015032E+04    1.1532840E+04    1.8625049E+06   -1.1532822E+04    1.8630227E+06
    0.89   300.000   -1.249E+02    1.8937995E+06    8.2550500E+03    8.6719421E+03    1.8937995E+06   -8.6719212E+03    1.8942164E+06
    0.90   300.000   -1.253E+02    1.9467241E+06    3.9974561E+03    4.3451769E+03    1.9467241E+06   -4.3451538E+03    1.9470719E+06
    0.91   300.000   -1.257E+02    2.0233077E+06   -7.4109402E+02   -4.3258023E+02    2.0233077E+06    4.3260429E+02    2.0236163E+06
    0.92   300.000   -1.261E+02    2.1215583E+06   -4.9002925E+03   -4.6037415E+03    2.1215584E+06    4.6037649E+03    2.1218550E+06
    0.93   300.000   -1.266E+02    2.2333558E+06   -7.7187433E+03   -7.4092736E+03    2.2333558E+06    7.4092945E+03    2.2336653E+06
    0.94   300.000   -1.270E+02    2.3450265E+06   -8.9031576E+03   -8.5578404E+03    2.3450266E+06    8.5578571E+03    2.3453719E+06
    0.95   300.000   -1.275E+02    2.4410253E+06   -8.6233110E+03   -8.2218183E+03    2.4410254E+06    8.2218299E+03    2.4414268E+06
    0.96   300.000   -1.280E+02    2.5088991E+06   -7.3931206E+03   -6.9197538E+03    2.5088992E+06    6.9197608E+03    2.5093725E+06
    0.97   300.000   -1.284E+02    2.5426642E+06   -5.9002175E+03   -5.3464737E+03    2.5426642E+06    5.3464774E+03    2.5432180E+06
    0.98   300.000   -1.289E+02    2.5430076E+06   -4.7759652E+03   -4.1421422E+03    2.5430077E+06    4.1421450E+03    2.5436415E+06
    0.99   300.000   -1.294E+02    2.5152026E+06   -4.3395674E+03   -3.6345846E+03    2.5152027E+06    3.6345891E+03    2.5159077E+06
    1.00   300.000   -1.299E+02    2.4668773E+06   -4.5113332E+03   -3.7513459E+03    2.4668774E+06    3.7513540E+03    2.4676374E+06
    1.01   300.000   -1.303E+02    2.4065367E+06   -5.0178591E+03   -4.2245858E+03    2.4065368E+06    4.2245986E+03    2.4073300E+06
    1.02   300.000   -1.308E+02    2.3418169E+06   -5.6828036E+03   -4.8814277E+03    2.3418170E+06    4.8814451E+03    2.3426184E+06
    1.03   300.000   -1.313E+02    2.2770007E+06   -6.5123785E+03   -5.7283100E+03    2.2770007E+06    5.7283311E+03    2.2777848E+06
    1.04   300.000   -1.317E+02    2.2117191E+06   -7.5762191E+03   -6.8308773E+03    2.2117192E+06    6.8309005E+03    2.2124645E+06
    1.05   300.000   -1.322E+02    2.1428552E+06   -8.8798058E+03   -8.1866703E+03    2.1428553E+06    8.1866943E+03    2.1435484E+06
    1.06   300.000   -1.327E+02    2.0685283E+06   -1.0327906E+04   -9.6902665E+03    2.0685284E+06    9.6902902E+03    2.0691660E+06
    1.07   300.000   -1.332E+02    1.9907658E+06   -1.1771312E+04   -1.1182216E+04    1.9907659E+06    1.1182239E+04    1.9913550E+06
    1.08   300.000   -1.337E+02    1.9150673E+06   -1.3119291E+04   -1.2562660E+04    1.9150674E+06    1.2562683E+04    1.9156240E+06
    1.09   300.000   -1.342E+02    1.8482027E+06   -1.4447937E+04   -1.3899129E+04    1.8482028E+06    1.3899153E+04    1.8487516E+06
    1.10   300.000   -1.347E+02    1.7963503E+06   -1.5976459E+04   -1.5401627E+04    1.7963503E+06    1.5401653E+04    1.7969252E+06
    1.11   300.000   -1.353E+02    1.7640725E+06   -1.7883063E+04   -1.7238253E+04    1.7640725E+06    1.7238280E+04    1.7647173E+06
    1.12   300.000   -1.358E+02    1.7535149E+06   -2.0120631E+04   -1.9352055E+04    1.7535149E+06    1.9352083E+04    1.7542835E+06
    1.13   300.000   -1.364E+02    1.7636555E+06   -2.2408938E+04   -2.1455367E+04    1.7636554E+06    2.1455394E+04    1.7646090E+06
    1.14   300.000   -1.369E+02    1.7901832E+06   -2.4380220E+04   -2.3177738E+04    1.7901832E+06    2.3177764E+04    1.7913857E+06
    1.15   300.000   -1.375E+02    1.8266277E+06   -2.5716378E+04   -2.4204707E+04    1.8266276E+06    2.4204730E+04    1.8281393E+06
    1.16   300.000   -1.382E+02    1.8666406E+06   -2.6217599E+04   -2.4345650E+04    1.8666406E+06    2.4345670E+04    1.8685125E+06
    1.17   300.000   -1.388E+02    1.9062447E+06   -2.5889737E+04   -2.3617687E+04    1.9062447E+06    2.3617704E+04    1.9085167E+06
    1.18   300.000   -1.395E+02    1.9444342E+06   -2.5070011E+04   -2.2368503E+04    1.9444342E+06    2.2368515E+04    1.9471357E+06
    1.19   300.000   -1.401E+02    1.9816795E+06   -2.4414444E+04   -2.1266627E+04    1.9816794E+06    2.1266635E+04    1.9848272E+06
    1.20   300.000   -1.408E+02    2.0177716E+06   -2.4598541E+04   -2.1009857E+04    2.0177715E+06    2.1009862E+04    2.0213602E+06
    1.21   300.000   -1.416E+02    2.0510508E+06   -2.5896354E+04   -2.1906561E+04    2.0510508E+06    2.1906565E+04    2.0550406E+06
    1.22   300.000   -1.423E+02    2.0796827E+06   -2.7996435E+04   -2.3678620E+04    2.0796826E+06    2.3678625E+04    2.0840004E+06
    1.23   300.000   -1.430E+02    2.1035696E+06   -3.0203598E+04   -2.5641525E+04    2.1035695E+06    2.5641536E+04    2.1081316E+06
    1.24   300.000   -1.438E+02    2.1247660E+06   -3.1821887E+04   -2.7078169E+04    2.1247660E+06    2.7078189E+04    2.1295097E+06
    1.25   300.000   -1.446E+02    2.1456788E+06   -3.2436373E+04   -2.7535708E+04    2.1456787E+06    2.7535740E+04    2.1505794E+06
    1.26   300.000   -1.454E+02    2.1664874E+06   -3.2017598E+04   -2.6955249E+04    2.1664873E+06    2.6955295E+04    2.1715496E+06
    1.27   300.000   -1.462E+02    2.1840405E+06   -3.0922184E+04   -2.5684934E+04    2.1840404E+06    2.5684993E+04    2.1892777E+06
    1.28   300.000   -1.471E+02    2.1933376E+06   -2.9811460E+04   -2.4394677E+04    2.1933375E+06    2.4394746E+04    2.1987543E+06
    1.29   300.000   -1.480E+02    2.1906965E+06   -2.9437951E+04   -2.3858478E+04    2.1906964E+06    2.3858553E+04    2.1962759E+06
    1.30   300.000   -1.489E+02    2.1764166E+06   -3.0310541E+04   -2.4624013E+04    2.1764165E+06    2.4624090E+04    2.1821030E+06
    1.31   300.000   -1.499E+02    2.1550298E+06   -3.2390141E+04   -2.6708255E+04    2.1550297E+06    2.6708329E+04    2.1607115E+06
    1.32   300.000   -1.509E+02    2.1329352E+06   -3.5039913E+04   -2.9527515E+04    2.1329351E+06    2.9527583E+04    2.1384475E+06
    1.33   300.000   -1.520E+02    2.1150579E+06   -3.7323044E+04   -3.2162220E+04    2.1150578E+06    3.2162281E+04    2.1202186E+06
    1.34   300.000   -1.532E+02    2.1026009E+06   -3.8466757E+04   -3.3801111E+04    2.1026008E+06    3.3801164E+04    2.1072664E+06
    1.35   300.000   -1.544E+02    2.0928313E+06   -3.8193771E+04   -3.4083592E+04    2.0928312E+06    3.4083638E+04    2.0969414E+06
    1.36   300.000   -1.557E+02    2.0805403E+06   -3.6778067E+04   -3.3189605E+04    2.0805401E+06    3.3189646E+04    2.0841286E+06
    1.37   300.000   -1.570E+02    2.0602672E+06   -3.4868731E+04   -3.1698116E+04    2.0602671E+06    3.1698153E+04    2.0634377E+06
    1.38   300.000   -1.585E+02    2.0284146E+06   -3.3183552E+04   -3.0298852E+04    2.0284144E+06    3.0298887E+04    2.0312991E+06
    1.39   300.000   -1.599E+02    1.9846635E+06   -3.2195958E+04   -2.9478313E+04    1.9846633E+06    2.9478347E+04    1.9873810E+06
    1.40   300.000   -1.614E+02    1.9324147E+06   -3.1971568E+04   -2.9342445E+04    1.9324146E+06    2.9342477E+04    1.9350437E+06
    1.41   300.000   -1.630E+02    1.8782142E+06   -3.2248184E+04   -2.9677342E+04    1.8782141E+06    2.9677374E+04    1.8807849E+06
    1.42   300.000   -1.645E+02    1.8303723E+06   -3.2671752E+04   -3.0167323E+04    1.8303722E+06    3.0167353E+04    1.8328766E+06
    1.43   300.000   -1.661E+02    1.7972083E+06   -3.2993650E+04   -3.0581337E+04    1.7972081E+06    3.0581366E+04    1.7996204E+06
    1.44   300.000   -1.676E+02    1.7853368E+06   -3.3130248E+04   -3.0831654E+04    1.7853367E+06    3.0831682E+04    1.7876353E+06
    1.45   300.000   -1.691E+02    1.7982515E+06   -3.3123113E+04   -3.0941673E+04    1.7982514E+06    3.0941699E+04    1.8004328E+06
    1.46   300.000   -1.706E+02    1.8355010E+06   -3.3070759E+04   -3.0988080E+04    1.8355009E+06    3.0988103E+04    1.8375835E+06
    1.47   300.000   -1.720E+02    1.8929133E+06   -3.3083444E+04   -3.1063146E+04    1.8929131E+06    3.1063163E+04    1.8949334E+06
    1.48   300.000   -1.733E+02    1.9640286E+06   -3.3272908E+04   -3.1267691E+04    1.9640284E+06    3.1267700E+04    1.9660336E+06
    1.49   300.000   -1.746E+02    2.0421401E+06   -3.3723154E+04   -3.1683161E+04    2.0421399E+06    3.1683162E+04    2.0441799E+06
    1.50   300.000   -1.758E+02    2.1219532E+06   -3.4388640E+04   -3.2270867E+04    2.1219530E+06    3.2270861E+04    2.1240708E+06
    1.51   300.000   -1.769E+02    2.2002323E+06   -3.4993370E+04   -3.2771213E+04    2.2002321E+06    3.2771200E+04    2.2024542E+06
    1.52   300.000   -1.779E+02    2.2752913E+06   -3.5078254E+04   -3.2749962E+04    2.2752911E+06    3.2749943E+04    2.2776194E+06
    1.53   300.000   -1.788E+02    2.3455210E+06   -3.4194152E+04   -3.1789834E+04    2.3455207E+06    3.1789811E+04    2.3479251E+06
    1.54   300.000   -1.797E+02    2.4077473E+06   -3.2079562E+04   -2.9664648E+04    2.4077471E+06    2.9664621E+04    2.4101620E+06
    1.55   300.000   -1.806E+02    2.4567941E+06   -2.8734646E+04   -2.6403443E+04    2.4567939E+06    2.6403413E+04    2.4591251E+06
    1.56   300.000   -1.814E+02    2.4871739E+06   -2.4435494E+04   -2.2290368E+04    2.4871737E+06    2.2290337E+04    2.4893188E+06
    1.57   300.000   -1.822E+02    2.4961139E+06   -1.9705256E+04   -1.7828360E+04    2.4961137E+06    1.7828330E+04    2.4979906E+06
    1.58   300.000   -1.829E+02    2.4855453E+06   -1.5180512E+04   -1.3613424E+04    2.4855452E+06    1.3613395E+04    2.4871122E+06
    1.59   300.000   -1.836E+02    2.4612644E+06   -1.1377643E+04   -1.0118389E+04    2.4612642E+06    1.0118364E+04    2.4625235E+06
    1.60   300.000   -1.844E+02    2.4300522E+06   -8.5197770E+03   -7.5337187E+03    2.4300521E+06    7.5336982E+03    2.4310381E+06
    1.61   300.000   -1.851E+02    2.3972305E+06   -6.5709633E+03   -5.8057730E+03    2.3972304E+06    5.8057592E+03    2.3979956E+06
    1.62   300.000   -1.858E+02    2.3661991E+06   -5.3950437E+03   -4.7926266E+03    2.3661990E+06    4.7926208E+03    2.3668014E+06
    1.63   300.000   -1.865E+02    2.3394735E+06   -4.8445124E+03   -4.3477824E+03    2.3394734E+06    4.3477853E+03    2.3399701E+06
    1.64   300.000   -1.872E+02    2.3197757E+06   -4.7555407E+03   -4.3108270E+03    2.3197757E+06    4.3108380E+03    2.3202204E+06
    1.65   300.000   -1.879E+02    2.3101346E+06   -4.9744101E+03   -4.5308720E+03    2.3101345E+06    4.5308895E+03    2.3105780E+06
    1.66   300.000   -1.886E+02    2.3128904E+06   -5.4484565E+03   -4.9554950E+03    2.3128904E+06    4.9555168E+03    2.3133833E+06
    1.67   300.000   -1.893E+02    2.3283655E+06   -6.2884676E+03   -5.6916652E+03    2.3283655E+06    5.6916897E+03    2.3289623E+06
    1.68   300.000   -1.900E+02    2.3542289E+06   -7.7306971E+03   -6.9668449E+03    2.3542289E+06    6.9668708E+03    2.3549927E+06
    1.69   300.000   -1.907E+02    2.3860554E+06   -9.9867155E+03   -8.9792728E+03    2.3860554E+06    8.9792995E+03    2.3870629E+06
    1.70   300.000   -1.914E+02    2.4188794E+06   -1.3024800E+04   -1.1682490E+04    2.4188794E+06    1.1682517E+04    2.4202218E+06
    1.71   300.000   -1.921E+02    2.4491797E+06   -1.6434675E+04   -1.4657220E+04    2.4491797E+06    1.4657247E+04    2.4509572E+06
    1.72   300.000   -1.928E+02    2.4764389E+06   -1.9539241E+04   -1.7234500E+04    2.4764390E+06    1.7234527E+04    2.4787437E+06
    1.73   300.000   -1.935E+02    2.5033262E+06   -2.1712999E+04   -1.8827202E+04    2.5033262E+06    1.8827228E+04    2.5062120E+06
    1.74   300.000   -1.942E+02    2.5342238E+06   -2.2673217E+04   -1.9228194E+04    2.5342238E+06    1.9228217E+04    2.5376688E+06
    1.75   300.000   -1.949E+02    2.5729769E+06   -2.2555124E+04   -1.8674627E+04    2.5729769E+06    1.8674645E+04    2.5768574E+06
    1.76   300.000   -1.956E+02    2.6211983E+06   -2.1770693E+04   -1.7672513E+04    2.6211984E+06    1.7672525E+04    2.6252966E+06
    1.77   300.000   -1.963E+02    2.6776839E+06   -2.0777982E+04   -1.6723613E+04    2.6776839E+06    1.6723616E+04    2.6817383E+06
    1.78   300.000   -1.970E+02    2.7385127E+06   -1.9885223E+04   -1.6109617E+04    2.7385127E+06    1.6109612E+04    2.7422883E+06
    1.79   300.000   -1.977E+02    2.7974031E+06   -1.9146109E+04   -1.5806167E+04    2.7974031E+06    1.5806153E+04    2.8007431E+06
    1.80   300.000   -1.984E+02    2.8465877E+06   -1.8357500E+04   -1.5520281E+04    2.8465877E+06    1.5520259E+04    2.8494249E+06
    1.81   300.000   -1.991E+02    2.8787054E+06   -1.7146529E+04   -1.4807775E+04    2.8787054E+06    1.4807749E+04    2.8810442E+06
    1.82   300.000   -1.998E+02    2.8895403E+06   -1.5124381E+04   -1.3235128E+04    2.8895403E+06    1.3235099E+04    2.8914295E+06
    1.83   300.000   -2.005E+02    2.8804984E+06   -1.2106913E+04   -1.0593759E+04    2.8804983E+06    1.0593728E+04    2.8820115E+06
    1.84   300.000   -2.012E+02    2.8593708E+06   -8.3693209E+03   -7.1461271E+03    2.8593708E+06    7.1460964E+03    2.8605940E+06
    1.85   300.000   -2.019E+02    2.8386541E+06   -4.7753076E+03   -3.7495253E+03    2.8386541E+06    3.7494963E+03    2.8396799E+06
    1.86   300.000   -2.026E+02    2.8321538E+06   -2.5846500E+03   -1.6608277E+03    2.8321538E+06    1.6608014E+03    2.8330776E+06
    1.87   300.000   -2.033E+02    2.8514950E+06   -2.9397456E+03   -2.0211573E+03    2.8514950E+06    2.0211341E+03    2.8524136E+06
    1.88   300.000   -2.040E+02    2.9036863E+06   -6.3077142E+03   -5.2969346E+03    2.9036864E+06    5.2969139E+03    2.9046971E+06
    1.89   300.000   -2.047E+02    2.9899211E+06   -1.2213651E+04   -1.1013612E+04    2.9899212E+06    1.1013592E+04    2.9911212E+06
    1.90   300.000   -2.054E+02    3.1054963E+06   -1.9391471E+04   -1.7908658E+04    3.1054963E+06    1.7908636E+04    3.1069792E+06
    1.91   300.000   -2.061E+02    3.2408127E+06   -2.6258677E+04   -2.4408827E+04    3.2408128E+06    2.4408801E+04    3.2426627E+06
    1.92   300.000   -2.069E+02    3.3833636E+06   -3.1533578E+04   -2.9247824E+04    3.3833637E+06    2.9247791E+04    3.3856494E+06
    1.93   300.000   -2.076E+02    3.5205703E+06   -3.4735118E+04   -3.1963299E+04    3.5205703E+06    3.1963259E+04    3.5233421E+06
    1.94   300.000   -2.084E+02    3.6428312E+06   -3.6247953E+04   -3.2958333E+04    3.6428312E+06    3.2958287E+04    3.6461208E+06
    1.95   300.000   -2.092E+02    3.7451963E+06   -3.6852871E+04   -3.3032298E+04    3.7451963E+06    3.3032245E+04    3.7490169E+06
    1.96   300.000   -2.100E+02    3.8265084E+06   -3.7085311E+04   -3.2744978E+04    3.8265084E+06    3.2744920E+04    3.8308487E+06
    1.97   300.000   -2.108E+02    3.8869193E+06   -3.6982945E+04   -3.2169948E+04    3.8869193E+06    3.2169886E+04    3.8917323E+06
    1.98   300.000   -2.117E+02    3.9259458E+06   -3.6406453E+04   -3.1215138E+04    3.9259457E+06    3.1215075E+04    3.9311370E+06
    1.99   300.000   -2.125E+02    3.9424812E+06   -3.5543984E+04   -3.0117612E+04    3.9424811E+06    3.0117549E+04    3.9479075E+06
    2.00   300.000   -2.134E+02    3.9366375E+06   -3.5032146E+04   -2.9545497E+04    3.9366374E+06    2.9545435E+04    3.9421241E+06
    2.01   300.000   -2.142E+02    3.9122525E+06   -3.5539162E+04   -3.0159627E+04    3.9122524E+06    3.0159568E+04    3.9176319E+06
    2.02   300.000   -2.150E+02    3.8786259E+06   -3.7257861E+04   -3.2097608E+04    3.8786257E+06    3.2097551E+04    3.8837860E+06
    2.03   300.000   -2.159E+02    3.8503241E+06   -3.9838496E+04   -3.4922883E+04    3.8503240E+06    3.4922829E+04    3.8552396E+06
    2.04   300.000   -2.167E+02    3.8446363E+06   -4.2748687E+04   -3.8021469E+04    3.8446362E+06    3.8021417E+04    3.8493634E+06
    2.05   300.000   -2.175E+02    3.8772489E+06   -4.5635038E+04   -4.1000151E+04    3.8772488E+06    4.1000099E+04    3.8818837E+06
    2.06   300.000   -2.183E+02    3.9578062E+06   -4.8419933E+04   -4.3798749E+04    3.9578061E+06    4.3798698E+04    3.9624273E+06
    2.07   300.000   -2.192E+02    4.0877264E+06   -5.1165384E+04   -4.6539068E+04    4.0877264E+06    4.6539017E+04    4.0923527E+06
    2.08   300.000   -2.200E+02    4.2616519E+06   -5.3815236E+04   -4.9227306E+04    4.2616520E+06    4.9227255E+04    4.2662399E+06
    2.09   300.000   -2.208E+02    4.4711345E+06   -5.5967153E+04   -5.1482503E+04    4.4711346E+06    5.1482454E+04    4.4756192E+06
    2.10   300.000   -2.216E+02    4.7072614E+06   -5.6918902E+04   -5.2563821E+04    4.7072615E+06    5.2563774E+04    4.7116165E+06
    2.11   300.000   -2.224E+02    4.9604349E+06   -5.6114297E+04   -5.1834873E+04    4.9604349E+06    5.1834829E+04    4.9647143E+06
    2.12   300.000   -2.232E+02    5.2188307E+06   -5.3689624E+04   -4.9350717E+04    5.2188307E+06    4.9350677E+04    5.2231696E+06
    2.13   300.000   -2.241E+02    5.4681771E+06   -5.0571953E+04   -4.5992364E+04    5.4681770E+06    4.5992328E+04    5.4727566E+06
    2.14   300.000   -2.249E+02    5.6938077E+06   -4.7973667E+04   -4.2978462E+04    5.6938077E+06    4.2978430E+04    5.6988029E+06
    2.15   300.000   -2.257E+02    5.8841086E+06   -4.6744733E+04   -4.1215435E+04    5.8841085E+06    4.1215405E+04    5.8896378E+06
    2.16   300.000   -2.266E+02    6.0337554E+06   -4.7084015E+04   -4.0990697E+04    6.0337553E+06    4.0990670E+04    6.0398486E+06
    2.17   300.000   -2.274E+02    6.1451082E+06   -4.8628764E+04   -4.2031527E+04    6.1451081E+06    4.2031500E+04    6.1517054E+06
    2.18   300.000   -2.282E+02    6.2267755E+06   -5.0666191E+04   -4.3684054E+04    6.2267754E+06    4.3684029E+04    6.2337576E+06
    2.19   300.000   -2.290E+02    6.2897501E+06   -5.2363901E+04   -4.5127333E+04    6.2897500E+06    4.5127311E+04    6.2969866E+06
    2.20   300.000   -2.298E+02    6.3429623E+06   -5.3072812E+04   -4.5684482E+04    6.3429623E+06    4.5684465E+04    6.3503506E+06
    2.21   300.000   -2.305E+02    6.3906163E+06   -5.2656988E+04   -4.5172394E+04    6.3906162E+06    4.5172381E+04    6.3981008E+06
    2.22   300.000   -2.313E+02    6.4325973E+06   -5.1627844E+04   -4.4051685E+04    6.4325973E+06    4.4051676E+04    6.4401734E+06
    2.23   300.000   -2.320E+02    6.4673807E+06   -5.0886508E+04   -4.3181415E+04    6.4673806E+06    4.3181406E+04    6.4750857E+06
    2.24   300.000   -2.327E+02    6.4958256E+06   -5.1177496E+04   -4.3286988E+04    6.4958256E+06    4.3286976E+04    6.5037161E+06
    2.25   300.000   -2.334E+02    6.5238581E+06   -5.2652897E+04   -4.4532713E+04    6.5238581E+06    4.4532696E+04    6.5319783E+06
    2.26   300.000   -2.341E+02    6.5619006E+06   -5.4876793E+04   -4.6518472E+04    6.5619007E+06    4.6518450E+04    6.5702590E+06
    2.27   300.000   -2.347E+02    6.6208320E+06   -5.7202445E+04   -4.8636083E+04    6.6208320E+06    4.8636059E+04    6.6293984E+06
    2.28   300.000   -2.354E+02    6.7078410E+06   -5.9159504E+04   -5.0433784E+04    6.7078410E+06    5.0433761E+04    6.7165668E+06
    2.29   300.000   -2.361E+02    6.8256278E+06   -6.0568081E+04   -5.1717402E+04    6.8256278E+06    5.1717382E+04    6.8344785E+06
    2.30   300.000   -2.368E+02    6.9736976E+06   -6.1387676E+04   -5.2408758E+04    6.9736977E+06    5.2408741E+04    6.9826766E+06
    2.31   300.000   -2.374E+02    7.1479221E+06   -6.1519615E+04   -5.2380545E+04    7.1479220E+06    5.2380532E+04    7.1570611E+06
    2.32   300.000   -2.381E+02    7.3384230E+06   -6.0800380E+04   -5.1481045E+04    7.3384230E+06    5.1481035E+04    7.3477423E+06
    2.33   300.000   -2.389E+02    7.5300581E+06   -5.9246222E+04   -4.9779769E+04    7.5300580E+06    4.9779760E+04    7.5395245E+06
    2.34   300.000   -2.396E+02    7.7075840E+06   -5.7332326E+04   -4.7813815E+04    7.7075839E+06    4.7813807E+04    7.7171024E+06
    2.35   300.000   -2.403E+02    7.8620490E+06   -5.6009835E+04   -4.6561995E+04    7.8620488E+06    4.6561986E+04    7.8714966E+06
    2.36   300.000   -2.410E+02    7.9932436E+06   -5.6404351E+04   -4.7119989E+04    7.9932433E+06    4.7119980E+04    8.0025277E+06
    2.37   300.000   -2.418E+02    8.1064077E+06   -5.9360872E+04   -5.0258619E+04    8.1064074E+06    5.0258610E+04    8.1155096E+06
    2.38   300.000   -2.425E+02    8.2055864E+06   -6.4945360E+04   -5.5969159E+04    8.2055860E+06    5.5969152E+04    8.2145622E+06
    2.39   300.000   -2.433E+02    8.2874416E+06   -7.1996065E+04   -6.3059388E+04    8.2874413E+06    6.3059384E+04    8.2963780E+06
    2.40   300.000   -2.441E+02    8.3384021E+06   -7.8111811E+04   -6.9154598E+04    8.3384018E+06    6.9154598E+04    8.3473590E+06
    2.41   300.000   -2.448E+02    8.3369221E+06   -8.0527803E+04   -7.1543652E+04    8.3369218E+06    7.1543657E+04    8.3459059E+06
    2.42   300.000   -2.456E+02    8.2613192E+06   -7.7619411E+04   -6.8633500E+04    8.2613189E+06    6.8633507E+04    8.2703049E+06
    2.43   300.000   -2.463E+02    8.1009447E+06   -6.9993937E+04   -6.1013484E+04    8.1009445E+06    6.1013493E+04    8.1099250E+06
    2.44   300.000   -2.471E+02    7.8656930E+06   -6.0372623E+04   -5.1353779E+04    7.8656929E+06    5.1353789E+04    7.8747117E+06
    2.45   300.000   -2.478E+02    7.5886915E+06   -5.2443145E+04   -4.3297846E+04    7.5886914E+06    4.3297855E+04    7.5978367E+06
    2.46   300.000   -2.485E+02    7.3194747E+06   -4.9370855E+04   -3.9998519E+04    7.3194747E+06    3.9998529E+04    7.3288470E+06
    2.47   300.000   -2.492E+02    7.1090092E+06   -5.2529198E+04   -4.2844258E+04    7.1090092E+06    4.2844269E+04    7.1186942E+06
    2.48   300.000   -2.499E+02    6.9928980E+06   -6.0923843E+04   -5.0871082E+04    6.9928981E+06    5.0871096E+04    7.0029509E+06
    2.49   300.000   -2.506E+02    6.9816642E+06   -7.1663567E+04   -6.1236344E+04    6.9816643E+06    6.1236360E+04    6.9920915E+06
    2.50   300.000   -2.513E+02    7.0627222E+06   -8.1275402E+04   -7.0543234E+04    7.0627223E+06    7.0543251E+04    7.0734545E+06
    2.51   300.000   -2.519E+02    7.2099183E+06   -8.7095649E+04   -7.6219460E+04    7.2099184E+06    7.6219478E+04    7.2207946E+06
    2.52   300.000   -2.526E+02    7.3929721E+06   -8.8035127E+04   -7.7245168E+04    7.3929721E+06    7.7245186E+04    7.4037621E+06
    2.53   300.000   -2.533E+02    7.5840284E+06   -8.4621599E+04   -7.4165379E+04    7.5840285E+06    7.4165398E+04    7.5944847E+06
    2.54   300.000   -2.539E+02    7.7629697E+06   -7.8671127E+04   -6.8764109E+04    7.7629698E+06    6.8764129E+04    7.7728768E+06
    2.55   300.000   -2.546E+02    7.9211552E+06   -7.2823944E+04   -6.3624648E+04    7.9211552E+06    6.3624670E+04    7.9303545E+06
    2.56   300.000   -2.553E+02    8.0609762E+06   -6.9872626E+04   -6.1478474E+04    8.0609762E+06    6.1478500E+04    8.0693703E+06
    2.57   300.000   -2.559E+02    8.1913246E+06   -7.1814765E+04   -6.4263733E+04    8.1913246E+06    6.4263765E+04    8.1988756E+06
    2.58   300.000   -2.566E+02    8.3220217E+06   -7.8895071E+04   -7.2162755E+04    8.3220217E+06    7.2162794E+04    8.3287541E+06
    2.59   300.000   -2.573E+02    8.4590172E+06   -8.9200127E+04   -8.3194516E+04    8.4590172E+06    8.3194565E+04    8.4650228E+06
    2.60   300.000   -2.579E+02    8.6005360E+06   -9.9225086E+04   -9.3790416E+04    8.6005361E+06    9.3790476E+04    8.6059707E+06
    2.61   300.000   -2.586E+02    8.7360649E+06   -1.0528374E+05   -1.0021960E+05    8.7360649E+06    1.0021967E+05    8.7411291E+06
    2.62   300.000   -2.592E+02    8.8510368E+06   -1.0513522E+05   -1.0022531E+05    8.8510368E+06    1.0022539E+05    8.8559468E+06
    2.63   300.000   -2.599E+02    8.9356728E+06   -9.8981797E+04   -9.4021668E+04    8.9356729E+06    9.4021751E+04    8.9406330E+06
    2.64   300.000   -2.605E+02    8.9910614E+06   -8.9194804E+04   -8.4009486E+04    8.9910615E+06    8.4009570E+04    8.9962468E+06
    2.65   300.000   -2.611E+02    9.0270531E+06   -7.8968316E+04   -7.3412561E+04    9.0270531E+06    7.3412642E+04    9.0326088E+06
    2.66   300.000   -2.617E+02    9.0541239E+06   -7.0969094E+04   -6.4911745E+04    9.0541238E+06    6.4911821E+04    9.0601812E+06
    2.67   300.000   -2.623E+02    9.0762853E+06   -6.6812803E+04   -6.0123163E+04    9.0762853E+06    6.0123233E+04    9.0829749E+06
    2.68   300.000   -2.629E+02    9.0894903E+06   -6.7086538E+04   -5.9649421E+04    9.0894903E+06    5.9649485E+04    9.0969274E+06
    2.69   300.000   -2.635E+02    9.0840712E+06   -7.1195667E+04   -6.2967425E+04    9.0840711E+06    6.2967483E+04    9.0922993E+06
    2.70   300.000   -2.640E+02    9.0473778E+06   -7.7026116E+04   -6.8111624E+04    9.0473777E+06    6.8111675E+04    9.0562922E+06
    2.71   300.000   -2.645E+02    8.9655633E+06   -8.1087146E+04   -7.1787837E+04    8.9655633E+06    7.1787878E+04    8.9748626E+06
    2.72   300.000   -2.650E+02    8.8268789E+06   -7.9565772E+04   -7.0347323E+04    8.8268789E+06    7.0347353E+04    8.8360974E+06
    2.73   300.000   -2.655E+02    8.6271654E+06   -6.9953474E+04   -6.1326084E+04    8.6271653E+06    6.1326100E+04    8.6357927E+06
    2.74   300.000   -2.659E+02    8.3732628E+06   -5.2234430E+04   -4.4603550E+04    8.3732627E+06    4.4603550E+04    8.3808936E+06
    2.75   300.000   -2.664E+02    8.0804381E+06   -2.8661299E+04   -2.2229281E+04    8.0804380E+06    2.2229267E+04    8.0868701E+06
    2.76   300.000   -2.668E+02    7.7661496E+06   -2.1787139E+03    3.0660315E+03    7.7661496E+06   -3.0660570E+03    7.7713943E+06
    2.77   300.000   -2.672E+02    7.4457176E+06    2.5247718E+04    2.9478101E+04    7.4457176E+06   -2.9478135E+04    7.4499479E+06
    2.78   300.000   -2.676E+02    7.1323920E+06    5.3070382E+04    5.6551535E+04    7.1323920E+06   -5.6551575E+04    7.1358732E+06
    2.79   300.000   -2.680E+02    6.8392591E+06    8.1215553E+04    8.4251319E+04    6.8392591E+06   -8.4251362E+04    6.8422948E+06
    2.80   300.000   -2.684E+02    6.5786738E+06    1.0871798E+05    1.1162138E+05    6.5786738E+06   -1.1162143E+05    6.5815772E+06
    2.81   300.000   -2.688E+02    6.3588141E+06    1.3294238E+05    1.3602383E+05    6.3588141E+06   -1.3602388E+05    6.3618955E+06
    2.82   300.000   -2.691E+02    6.1818012E+06    1.4984184E+05    1.5340455E+05    6.1818011E+06   -1.5340461E+05    6.1853638E+06
    2.83   300.000   -2.695E+02    6.0464518E+06    1.5522147E+05    1.5955520E+05    6.0464518E+06   -1.5955526E+05    6.0507855E+06
    2.84   300.000   -2.699E+02    5.9531173E+06    1.4648172E+05    1.5185208E+05    5.9531173E+06   -1.5185214E+05    5.9584876E+06
    2.85   300.000   -2.702E+02    5.9063134E+06    1.2392092E+05    1.3055849E+05    5.9063133E+06   -1.3055856E+05    5.9129509E+06
    2.86   300.000   -2.706E+02    5.9137422E+06    9.0850699E+04    9.8949968E+04    5.9137421E+06   -9.8950052E+04    5.9218413E+06
    2.87   300.000   -2.710E+02    5.9825440E+06    5.2465147E+04    6.2201474E+04    5.9825438E+06   -6.2201569E+04    5.9922802E+06
    2.88   300.000   -2.714E+02    6.1141725E+06    1.4126857E+04    2.5687768E+04    6.1141723E+06   -2.5687875E+04    6.1257332E+06
    2.89   300.000   -2.717E+02    6.2998214E+06   -2.0002350E+04   -6.3956862E+03    6.2998212E+06    6.3955671E+03    6.3134278E+06
    2.90   300.000   -2.721E+02    6.5182607E+06   -4.7456145E+04   -3.1577503E+04    6.5182605E+06    3.1577372E+04    6.5341391E+06
    2.91   300.000   -2.725E+02    6.7370014E+06   -6.7202054E+04   -4.8924874E+04    6.7370012E+06    4.8924734E+04    6.7552784E+06
    2.92   300.000   -2.729E+02    6.9166209E+06   -7.9125885E+04   -5.8574854E+04    6.9166207E+06    5.8574705E+04    6.9371718E+06
    2.93   300.000   -2.733E+02    7.0174609E+06   -8.3712744E+04   -6.1372075E+04    7.0174608E+06    6.1371923E+04    7.0398014E+06
    2.94   300.000   -2.737E+02    7.0082686E+06   -8.1982617E+04   -5.8665755E+04    7.0082685E+06    5.8665606E+04    7.0315854E+06
    2.95   300.000   -2.742E+02    6.8758361E+06   -7.5436805E+04   -5.2094950E+04    6.8758360E+06    5.2094810E+04    6.8991779E+06
    2.96   300.000   -2.746E+02    6.6315860E+06   -6.5843101E+04   -4.3294119E+04    6.6315860E+06    4.3293992E+04    6.6541350E+06
    2.97   300.000   -2.750E+02    6.3097653E+06   -5.4874490E+04   -3.3594718E+04    6.3097653E+06    3.3594608E+04    6.3310450E+06
    2.98   300.000   -2.754E+02    5.9572069E+06   -4.3790641E+04   -2.3881398E+04    5.9572069E+06    2.3881305E+04    5.9771161E+06
    2.99   300.000   -2.758E+02    5.6210501E+06   -3.3448361E+04   -1.4779224E+04    5.6210500E+06    1.4779145E+04    5.6397192E+06
    3.00   300.000   -2.762E+02    5.3399414E+06   -2.4602848E+04   -7.0221078E+03    5.3399414E+06    7.0220418E+03    5.3575221E+06
    3.01   300.000   -2.766E+02    5.1386302E+06   -1.8109200E+04   -1.5811953E+03    5.1386301E+06    1.5811383E+03    5.1551581E+06
    3.02   300.000   -2.770E+02    5.0238887E+06   -1.4903348E+04    4.9630135E+02    5.0238886E+06   -4.9635197E+02    5.0392883E+06
    3.03   300.000   -2.773E+02    4.9829150E+06   -1.5878110E+04   -1.6945210E+03    4.9829150E+06    1.6944750E+03    4.9970985E+06
    3.04   300.000   -2.777E+02    4.9879039E+06   -2.1500243E+04   -8.5497325E+03    4.9879038E+06    8.5496903E+03    5.0008543E+06
    3.05   300.000   -2.781E+02    5.0072989E+06   -3.1139276E+04   -1.9371601E+04    5.0072988E+06    1.9371562E+04    5.0190665E+06
    3.06   300.000   -2.785E+02    5.0182721E+06   -4.2690474E+04   -3.2054814E+04    5.0182721E+06    3.2054781E+04    5.0289077E+06
    3.07   300.000   -2.789E+02    5.0132570E+06   -5.3026732E+04   -4.3524904E+04    5.0132569E+06    4.3524877E+04    5.0227587E+06
    3.08   300.000   -2.793E+02    4.9974747E+06   -5.9049913E+04   -5.0723123E+04    4.9974747E+06    5.0723104E+04    5.0058015E+06
    3.09   300.000   -2.797E+02    4.9801540E+06   -5.8748841E+04   -5.1612779E+04    4.9801539E+06    5.1612769E+04    4.9872900E+06
    3.10   300.000   -2.801E+02    4.9655998E+06   -5.1941657E+04   -4.5927805E+04    4.9655997E+06    4.5927805E+04    4.9716136E+06
    3.11   300.000   -2.805E+02    4.9495907E+06   -4.0521855E+04   -3.5465561E+04    4.9495906E+06    3.5465570E+04    4.9546469E+06
    3.12   300.000   -2.809E+02    4.9227146E+06   -2.7909976E+04   -2.3580567E+04    4.9227145E+06    2.3580584E+04    4.9270439E+06
    3.13   300.000   -2.813E+02    4.8783238E+06   -1.7685507E+04   -1.3829557E+04    4.8783237E+06    1.3829579E+04    4.8821797E+06
    3.14   300.000   -2.817E+02    4.8203761E+06   -1.2089850E+04   -8.4651220E+03    4.8203760E+06    8.4651483E+03    4.8240007E+06
    3.15   300.000   -2.821E+02    4.7661935E+06   -1.1362224E+04   -7.7557766E+03    4.7661934E+06    7.7558059E+03    4.7697998E+06
    3.16   300.000   -2.825E+02    4.7423049E+06   -1.4193270E+04   -1.0426107E+04    4.7423048E+06    1.0426139E+04    4.7460719E+06
    3.17   300.000   -2.829E+02    4.7760858E+06   -1.8726568E+04   -1.4647905E+04    4.7760857E+06    1.4647940E+04    4.7801644E+06
    3.18   300.000   -2.833E+02    4.8875961E+06   -2.3422163E+04   -1.8895452E+04    4.8875960E+06    1.8895491E+04    4.8921228E+06
    3.19   300.000   -2.837E+02    5.0843426E+06   -2.7488065E+04   -2.2371493E+04    5.0843426E+06    2.2371536E+04    5.0894591E+06
    3.20   300.000   -2.841E+02    5.3597489E+06   -3.0861126E+04   -2.4984074E+04    5.3597489E+06    2.4984119E+04    5.3656259E+06
    3.21   300.000   -2.845E+02    5.6951650E+06   -3.3901622E+04   -2.7036543E+04    5.6951650E+06    2.7036588E+04    5.7020301E+06
    3.22   300.000   -2.849E+02    6.0647244E+06   -3.7114405E+04   -2.8950137E+04    6.0647244E+06    2.8950181E+04    6.0728887E+06
    3.23   300.000   -2.853E+02    6.4421147E+06   -4.1071058E+04   -3.1209317E+04    6.4421147E+06    3.1209358E+04    6.4519764E+06
    3.24   300.000   -2.857E+02    6.8076842E+06   -4.6393392E+04   -3.4398355E+04    6.8076843E+06    3.4398395E+04    6.8196793E+06
    3.25   300.000   -2.862E+02    7.1527399E+06   -5.3526426E+04   -3.9042593E+04    7.1527399E+06    3.9042635E+04    7.1672237E+06
    3.26   300.000   -2.866E+02    7.4772405E+06   -6.2261180E+04   -4.5178948E+04    7.4772406E+06    4.5178994E+04    7.4943228E+06
    3.27   300.000   -2.871E+02    7.7801769E+06   -7.1441578E+04   -5.2047746E+04    7.7801770E+06    5.2047800E+04    7.7995708E+06
    3.28   300.000   -2.876E+02    8.0485447E+06   -7.9352617E+04   -5.8377661E+04    8.0485448E+06    5.8377724E+04    8.0695198E+06
    3.29   300.000   -2.881E+02    8.2545417E+06   -8.4603897E+04   -6.3101047E+04    8.2545419E+06    6.3101117E+04    8.2760447E+06
    3.30   300.000   -2.886E+02    8.3646021E+06   -8.6741631E+04   -6.5820433E+04    8.3646023E+06    6.5820508E+04    8.3855235E+06
    3.31   300.000   -2.891E+02    8.3530226E+06   -8.6144678E+04   -6.6687721E+04    8.3530228E+06    6.6687797E+04    8.3724797E+06
    3.32   300.000   -2.896E+02    8.2097660E+06   -8.3496947E+04   -6.6010123E+04    8.2097662E+06    6.6010196E+04    8.2272530E+06
    3.33   300.000   -2.902E+02    7.9392947E+06   -7.9370162E+04   -6.4012673E+04    7.9392948E+06    6.4012741E+04    7.9546523E+06
    3.34   300.000   -2.907E+02    7.5554770E+06   -7.4112215E+04   -6.0823003E+04    7.5554771E+06    6.0823065E+04    7.5687663E+06
    3.35   300.000   -2.912E+02    7.0789234E+06   -6.7897657E+04   -5.6504786E+04    7.0789235E+06    5.6504843E+04    7.0903163E+06
    3.36   300.000   -2.917E+02    6.5385914E+06   -6.0816210E+04   -5.1084974E+04    6.5385915E+06    5.1085026E+04    6.5483228E+06
    3.37   300.000   -2.922E+02    5.9738003E+06   -5.3040087E+04   -4.4687963E+04    5.9738004E+06    4.4688011E+04    5.9821525E+06
    3.38   300.000   -2.926E+02    5.4305859E+06   -4.5074288E+04   -3.7792588E+04    5.4305860E+06    3.7792633E+04    5.4378677E+06
    3.39   300.000   -2.931E+02    4.9509990E+06   -3.7896767E+04   -3.1389093E+04    4.9509991E+06    3.1389133E+04    4.9575067E+06
    3.40   300.000   -2.936E+02    4.5616195E+06   -3.2772090E+04   -2.6792727E+04    4.5616195E+06    2.6792763E+04    4.5675989E+06
    3.41   300.000   -2.940E+02    4.2691337E+06   -3.0787366E+04   -2.5155669E+04    4.2691337E+06    2.5155699E+04    4.2747654E+06
    3.42   300.000   -2.945E+02    4.0647704E+06   -3.2423109E+04   -2.7000827E+04    4.0647704E+06    2.7000851E+04    4.0701927E+06
    3.43   300.000   -2.950E+02    3.9332504E+06   -3.7418452E+04   -3.2058207E+04    3.9332504E+06    3.2058225E+04    3.9386107E+06
    3.44   300.000   -2.955E+02    3.8607622E+06   -4.4923285E+04   -3.9412845E+04    3.8607622E+06    3.9412858E+04    3.8662726E+06
    3.45   300.000   -2.960E+02    3.8385411E+06   -5.3838330E+04   -4.7865382E+04    3.8385411E+06    4.7865391E+04    3.8445141E+06
    3.46   300.000   -2.966E+02    3.8611033E+06   -6.3293910E+04   -5.6445709E+04    3.8611033E+06    5.6445714E+04    3.8679515E+06
    3.47   300.000   -2.971E+02    3.9210280E+06   -7.3016859E+04   -6.4821577E+04    3.9210280E+06    6.4821579E+04    3.9292233E+06
    3.48   300.000   -2.976E+02    4.0048517E+06   -8.3132524E+04   -7.3147767E+04    4.0048517E+06    7.3147765E+04    4.0148364E+06
    3.49   300.000   -2.982E+02    4.0940387E+06   -9.3357345E+04   -8.1305460E+04    4.0940387E+06    8.1305453E+04    4.1060906E+06
    3.50   300.000   -2.987E+02    4.1707260E+06   -1.0225456E+05   -8.8177951E+04    4.1707260E+06    8.8177940E+04    4.1848026E+06
    3.51   300.000   -2.993E+02    4.2243701E+06   -1.0734475E+05   -9.1709110E+04    4.2243701E+06    9.1709095E+04    4.2400057E+06
    3.52   300.000   -2.998E+02    4.2553553E+06   -1.0618185E+05   -8.9834144E+04    4.2553553E+06    8.9834126E+04    4.2717030E+06
    3.53   300.000   -3.003E+02    4.2736913E+06   -9.7696270E+04   -8.1647145E+04    4.2736913E+06    8.1647124E+04    4.2897404E+06
    3.54   300.000   -3.009E+02    4.2935524E+06   -8.2881846E+04   -6.8010879E+04    4.2935524E+06    6.8010857E+04    4.3084234E+06
    3.55   300.000   -3.014E+02    4.3265580E+06   -6.4399203E+04   -5.1249592E+04    4.3265580E+06    5.1249569E+04    4.3397076E+06
    3.56   300.000   -3.020E+02    4.3768954E+06   -4.5437675E+04   -3.4191908E+04    4.3768954E+06    3.4191884E+04    4.3881412E+06
    3.57   300.000   -3.026E+02    4.4399128E+06   -2.8588226E+04   -1.9180563E+04    4.4399128E+06    1.9180540E+04    4.4493204E+06
    3.58   300.000   -3.031E+02    4.5044237E+06   -1.5300453E+04   -7.5565064E+03    4.5044237E+06    7.5564837E+03    4.5121676E+06
    3.59   300.000   -3.037E+02    4.5578211E+06   -6.0230109E+03    2.5191241E+02    4.5578211E+06   -2.5193324E+02    4.5640961E+06
    3.60   300.000   -3.043E+02    4.5916547E+06   -6.8491677E+02    4.3095974E+03    4.5916547E+06   -4.3096156E+03    4.5966492E+06
    3.61   300.000   -3.049E+02    4.6050583E+06    9.8214970E+02    4.8830999E+03    4.6050583E+06   -4.8831143E+03    4.6089592E+06
    3.62   300.000   -3.055E+02    4.6053846E+06   -5.1005938E+02    2.4871402E+03    4.6053846E+06   -2.4871490E+03    4.6083818E+06
    3.63   300.000   -3.061E+02    4.6073249E+06   -4.2348956E+03   -1.9527197E+03    4.6073249E+06    1.9527186E+03    4.6096071E+06
    3.64   300.000   -3.067E+02    4.6310508E+06   -8.9073553E+03   -7.1605463E+03    4.6310508E+06    7.1605548E+03    4.6327976E+06
    3.65   300.000   -3.073E+02    4.6979939E+06   -1.3199725E+04   -1.1823260E+04    4.6979940E+06    1.1823279E+04    4.6993705E+06
    3.66   300.000   -3.078E+02    4.8234953E+06   -1.6028637E+04   -1.4872531E+04    4.8234953E+06    1.4872561E+04    4.8246514E+06
    3.67   300.000   -3.084E+02    5.0086850E+06   -1.6614614E+04   -1.5539462E+04    5.0086850E+06    1.5539502E+04    5.0097601E+06
    3.68   300.000   -3.089E+02    5.2357802E+06   -1.4447727E+04   -1.3316983E+04    5.2357802E+06    1.3317030E+04    5.2369110E+06
    3.69   300.000   -3.094E+02    5.4698167E+06   -9.4183136E+03   -8.0893355E+03    5.4698167E+06    8.0893852E+03    5.4711457E+06
    3.70   300.000   -3.100E+02    5.6672592E+06   -2.1105843E+03   -4.2687862E+02    5.6672592E+06    4.2692768E+02    5.6689429E+06
    3.71   300.000   -3.105E+02    5.7892788E+06    6.0983597E+03    8.3102013E+03    5.7892787E+06   -8.3101566E+03    5.7914905E+06
    3.72   300.000   -3.110E+02    5.8148300E+06    1.3421291E+04    1.6344991E+04    5.8148298E+06   -1.6344953E+04    5.8177535E+06
    3.73   300.000   -3.115E+02    5.7474039E+06    1.8333072E+04    2.2140677E+04    5.7474038E+06   -2.2140648E+04    5.7512114E+06
    3.74   300.000   -3.120E+02    5.6122179E+06    2.0099523E+04    2.4910840E+04    5.6122177E+06   -2.4910818E+04    5.6170291E+06
    3.75   300.000   -3.124E+02    5.4462338E+06    1.8942645E+04    2.4771426E+04    5.4462337E+06   -2.4771410E+04    5.4520625E+06
    3.76   300.000   -3.129E+02    5.2865044E+06    1.5847791E+04    2.2553738E+04    5.2865043E+06   -2.2553725E+04    5.2932103E+06
    3.77   300.000   -3.133E+02    5.1615349E+06    1.2110663E+04    1.9386325E+04    5.1615348E+06   -1.9386313E+04    5.1688105E+06
    3.78   300.000   -3.137E+02    5.0881820E+06    8.8572437E+03    1.6271254E+04    5.0881820E+06   -1.6271238E+04    5.0955960E+06
    3.79   300.000   -3.141E+02    5.0738599E+06    6.7809308E+03    1.3871077E+04    5.0738600E+06   -1.3871057E+04    5.0809501E+06
    3.80   300.000   -3.145E+02    5.1203681E+06    6.0600759E+03    1.2440139E+04    5.1203682E+06   -1.2440113E+04    5.1267482E+06
    3.81   300.000   -3.149E+02    5.2242153E+06    6.2331690E+03    1.1669279E+04    5.2242154E+06   -1.1669247E+04    5.2296516E+06
    3.82   300.000   -3.153E+02    5.3722064E+06    6.1127121E+03    1.0543613E+04    5.3722066E+06   -1.0543576E+04    5.3766375E+06
    3.83   300.000   -3.156E+02    5.5377918E+06    4.2174408E+03    7.7242072E+03    5.5377919E+06   -7.7241659E+03    5.5412987E+06
    3.84   300.000   -3.160E+02    5.6853887E+06   -1.6308759E+02    2.5893712E+03    5.6853889E+06   -2.5893278E+03    5.6881413E+06
    3.85   300.000   -3.163E+02    5.7831104E+06   -6.1286792E+03   -3.9212334E+03    5.7831106E+06    3.9212770E+03    5.7853180E+06
    3.86   300.000   -3.167E+02    5.8155964E+06   -1.1520290E+04   -9.6401590E+03    5.8155966E+06    9.6402007E+03    5.8174768E+06
    3.87   300.000   -3.171E+02    5.7875219E+06   -1.4223366E+04   -1.2456945E+04    5.7875221E+06    1.2456983E+04    5.7892885E+06
    3.88   300.000   -3.174E+02    5.7162737E+06   -1.3301839E+04   -1.1440165E+04    5.7162739E+06    1.1440198E+04    5.7181355E+06
    3.89   300.000   -3.178E+02    5.6207118E+06   -9.3321945E+03   -7.1679569E+03    5.6207120E+06    7.1679843E+03    5.6228762E+06
    3.90   300.000   -3.181E+02    5.5142695E+06   -4.0892951E+03   -1.4185700E+03    5.5142697E+06    1.4185922E+03    5.5169404E+06
    3.91   300.000   -3.185E+02    5.4053230E+06    1.5151599E+02    3.5155916E+03    5.4053232E+06   -3.5155736E+03    5.4086873E+06
    3.92   300.000   -3.188E+02    5.3011641E+06    1.5288192E+03    5.7272853E+03    5.3011642E+06   -5.7272699E+03    5.3053627E+06
    3.93   300.000   -3.191E+02    5.2101810E+06   -6.3270062E+02    4.4587533E+03    5.2101811E+06   -4.4587387E+03    5.2152726E+06
    3.94   300.000   -3.194E+02    5.1410644E+06   -5.6588139E+03    2.7973926E+02    5.1410646E+06   -2.7972419E+02    5.1470031E+06
    3.95   300.000   -3.197E+02    5.1014631E+06   -1.2056300E+04   -5.3994488E+03    5.1014632E+06    5.3994654E+03    5.1081200E+06
    3.96   300.000   -3.200E+02    5.0973510E+06   -1.8311153E+04   -1.1073237E+04    5.0973511E+06    1.1073256E+04    5.1045890E+06
    3.97   300.000   -3.203E+02    5.1325756E+06   -2.3454635E+04   -1.5683965E+04    5.1325756E+06    1.5683987E+04    5.1403463E+06
    3.98   300.000   -3.206E+02    5.2086960E+06   -2.7243930E+04   -1.8828655E+04    5.2086960E+06    1.8828681E+04    5.2171113E+06
    3.99   300.000   -3.209E+02    5.3254639E+06   -3.0170136E+04   -2.0816619E+04    5.3254639E+06    2.0816650E+04    5.3348174E+06
    4.00   300.000   -3.212E+02    5.4811290E+06   -3.3577039E+04   -2.2823050E+04    5.4811290E+06    2.2823087E+04    5.4918830E+06
    4.01   300.000   -3.215E+02    5.6718921E+06   -3.9745430E+04   -2.6988769E+04    5.6718920E+06    2.6988812E+04    5.6846487E+06
    4.02   300.000   -3.217E+02    5.8911631E+06   -5.1291680E+04   -3.5845066E+04    5.8911630E+06    3.5845112E+04    5.9066096E+06
    4.03   300.000   -3.220E+02    6.1292658E+06   -6.9667023E+04   -5.0873713E+04    6.1292656E+06    5.0873759E+04    6.1480590E+06
    4.04   300.000   -3.222E+02    6.3732648E+06   -9.3740639E+04   -7.1165883E+04    6.3732646E+06    7.1165926E+04    6.3958394E+06
    4.05   300.000   -3.225E+02    6.6066536E+06   -1.1975548E+05   -9.3408298E+04    6.6066534E+06    9.3408334E+04    6.6330006E+06
    4.06   300.000   -3.227E+02    6.8091995E+06   -1.4280080E+05   -1.1327778E+05    6.8091994E+06    1.1327780E+05    6.8387224E+06
    4.07   300.000   -3.230E+02    6.9571656E+06   -1.5880088E+05   -1.2723404E+05    6.9571655E+06    1.2723405E+05    6.9887323E+06
    4.08   300.000   -3.232E+02    7.0244161E+06   -1.6598765E+05   -1.3375456E+05    7.0244160E+06    1.3375456E+05    7.0566491E+06
    4.09   300.000   -3.235E+02    6.9861438E+06   -1.6535278E+05   -1.3364066E+05    6.9861437E+06    1.3364066E+05    7.0178558E+06
    4.10   300.000   -3.237E+02    6.8264436E+06   -1.5999217E+05   -1.2941557E+05    6.8264435E+06    1.2941556E+05    6.8570201E+06
    4.11   300.000   -3.239E+02    6.5465829E+06   -1.5365773E+05   -1.2412392E+05    6.5465828E+06    1.2412391E+05    6.5761166E+06
    4.12   300.000   -3.242E+02    6.1675484E+06   -1.4917627E+05   -1.2006364E+05    6.1675483E+06    1.2006364E+05    6.1966609E+06
    4.13   300.000   -3.244E+02    5.7240979E+06   -1.4741529E+05   -1.1797358E+05    5.7240978E+06    1.1797358E+05    5.7535395E+06
    4.14   300.000   -3.247E+02    5.2543595E+06   -1.4719534E+05   -1.1698429E+05    5.2543594E+06    1.1698429E+05    5.2845705E+06
    4.15   300.000   -3.249E+02    4.7914308E+06   -1.4613553E+05   -1.1529814E+05    4.7914307E+06    1.1529814E+05    4.8222681E+06
    4.16   300.000   -3.252E+02    4.3601140E+06   -1.4202596E+05   -1.1124433E+05    4.3601139E+06    1.1124434E+05    4.3908955E+06
    4.17   300.000   -3.255E+02    3.9771101E+06   -1.3405852E+05   -1.0419413E+05    3.9771101E+06    1.0419413E+05    4.0069745E+06
    4.18   300.000   -3.257E+02    3.6514809E+06   -1.2325104E+05   -9.4871780E+04    3.6514809E+06    9.4871783E+04    3.6798601E+06
    4.19   300.000   -3.260E+02    3.3848637E+06   -1.1185206E+05   -8.4923158E+04    3.3848637E+06    8.4923160E+04    3.4117926E+06
    4.20   300.000   -3.263E+02    3.1734139E+06   -1.0217545E+05   -7.6060941E+04    3.1734139E+06    7.6060941E+04    3.1995284E+06
    4.21   300.000   -3.265E+02    3.0118687E+06   -9.5581214E+04   -6.9304246E+04    3.0118687E+06    6.9304245E+04    3.0381456E+06
    4.22   300.000   -3.268E+02    2.8969655E+06   -9.2061991E+04   -6.4667042E+04    2.8969655E+06    6.4667039E+04    2.9243605E+06
    4.23   300.000   -3.270E+02    2.8275617E+06   -9.0471723E+04   -6.1333211E+04    2.8275617E+06    6.1333206E+04    2.8567002E+06
    4.24   300.000   -3.273E+02    2.8019729E+06   -8.9123504E+04   -5.8100170E+04    2.8019729E+06    5.8100163E+04    2.8329962E+06
    4.25   300.000   -3.275E+02    2.8149672E+06   -8.6451259E+04   -5.3877677E+04    2.8149672E+06    5.3877667E+04    2.8475408E+06
    4.26   300.000   -3.278E+02    2.8560665E+06   -8.1580584E+04   -4.8178753E+04    2.8560664E+06    4.8178739E+04    2.8894683E+06
    4.27   300.000   -3.280E+02    2.9099967E+06   -7.4665270E+04   -4.1453571E+04    2.9099966E+06    4.1453555E+04    2.9432083E+06
    4.28   300.000   -3.283E+02    2.9601615E+06   -6.6758422E+04   -3.4928056E+04    2.9601615E+06    3.4928038E+04    2.9919918E+06
    4.29   300.000   -3.285E+02    2.9944315E+06   -5.9153444E+04   -2.9839843E+04    2.9944315E+06    2.9839824E+04    3.0237451E+06
    4.30   300.000   -3.288E+02    3.0096619E+06   -5.2583110E+04   -2.6576276E+04    3.0096619E+06    2.6576256E+04    3.0356687E+06
    4.31   300.000   -3.291E+02    3.0114447E+06   -4.6915887E+04   -2.4469533E+04    3.0114447E+06    2.4469513E+04    3.0338910E+06
    4.32   300.000   -3.294E+02    3.0097030E+06   -4.1591066E+04   -2.2434552E+04    3.0097030E+06    2.2434531E+04    3.0288595E+06
    4.33   300.000   -3.297E+02    3.0140807E+06   -3.6324201E+04   -1.9830509E+04    3.0140807E+06    1.9830487E+04    3.0305744E+06
    4.34   300.000   -3.300E+02    3.0320021E+06   -3.1413510E+04   -1.6806927E+04    3.0320020E+06    1.6806903E+04    3.0466086E+06
    4.35   300.000   -3.303E+02    3.0692281E+06   -2.7477721E+04   -1.4006994E+04    3.0692280E+06    1.4006967E+04    3.0826988E+06
    4.36   300.000   -3.306E+02    3.1313357E+06   -2.4985576E+04   -1.2048514E+04    3.1313356E+06    1.2048484E+04    3.1442727E+06
    4.37   300.000   -3.309E+02    3.2243156E+06   -2.3985935E+04   -1.1203954E+04    3.2243155E+06    1.1203920E+04    3.2370975E+06
    4.38   300.000   -3.312E+02    3.3526034E+06   -2.4199876E+04   -1.1426517E+04    3.3526033E+06    1.1426480E+04    3.3653767E+06
    4.39   300.000   -3.316E+02    3.5148444E+06   -2.5377007E+04   -1.2635400E+04    3.5148444E+06    1.2635361E+04    3.5275860E+06
    4.40   300.000   -3.319E+02    3.7006268E+06   -2.7587898E+04   -1.4971294E+04    3.7006267E+06    1.4971254E+04    3.7132433E+06
    4.41   300.000   -3.322E+02    3.8915345E+06   -3.1092510E+04   -1.8675354E+04    3.8915344E+06    1.8675316E+04    3.9039516E+06
    4.42   300.000   -3.325E+02    4.0666623E+06   -3.5826453E+04   -2.3595978E+04    4.0666622E+06    2.3595942E+04    4.0788927E+06
    4.43   300.000   -3.328E+02    4.2093261E+06   -4.1071336E+04   -2.8855120E+04    4.2093260E+06    2.8855088E+04    4.2215422E+06
    4.44   300.000   -3.332E+02    4.3107051E+06   -4.5816165E+04   -3.3198029E+04    4.3107051E+06    3.3198000E+04    4.3233232E+06
    4.45   300.000   -3.335E+02    4.3686531E+06   -4.9581345E+04   -3.5833491E+04    4.3686530E+06    3.5833466E+04    4.3824008E+06
    4.46   300.000   -3.338E+02    4.3843984E+06   -5.2940412E+04   -3.7001851E+04    4.3843983E+06    3.7001829E+04    4.4003368E+06
    4.47   300.000   -3.341E+02    4.3614529E+06   -5.7304635E+04   -3.7813105E+04    4.3614528E+06    3.7813084E+04    4.3809443E+06
    4.48   300.000   -3.344E+02    4.3074230E+06   -6.4224353E+04   -3.9599620E+04    4.3074229E+06    3.9599598E+04    4.3320476E+06
    4.49   300.000   -3.347E+02    4.2353002E+06   -7.4711475E+04   -4.3301243E+04    4.2353000E+06    4.3301221E+04    4.2667103E+06
    4.50   300.000   -3.350E+02    4.1616362E+06   -8.8857609E+04   -4.9173908E+04    4.1616361E+06    4.9173885E+04    4.2013198E+06
    4.51   300.000   -3.353E+02    4.1032410E+06   -1.0572098E+05   -5.6788214E+04    4.1032409E+06    5.6788192E+04    4.1521736E+06
    4.52   300.000   -3.356E+02    4.0754319E+06   -1.2336346E+05   -6.5139107E+04    4.0754318E+06    6.5139088E+04    4.1336561E+06
    4.53   300.000   -3.360E+02    4.0916843E+06   -1.3909243E+05   -7.2803316E+04    4.0916841E+06    7.2803301E+04    4.1579733E+06
    4.54   300.000   -3.363E+02    4.1625932E+06   -1.5016153E+05   -7.8307397E+04    4.1625931E+06    7.8307386E+04    4.2344472E+06
    4.55   300.000   -3.366E+02    4.2948128E+06   -1.5494764E+05   -8.0808403E+04    4.2948127E+06    8.0808395E+04    4.3689519E+06
    4.56   300.000   -3.369E+02    4.4925041E+06   -1.5394959E+05   -8.0730912E+04    4.4925040E+06    8.0730903E+04    4.5657227E+06
    4.57   300.000   -3.372E+02    4.7603848E+06   -1.4969468E+05   -7.9743868E+04    4.7603848E+06    7.9743856E+04    4.8303356E+06
    4.58   300.000   -3.376E+02    5.1040567E+06   -1.4539682E+05   -7.9902080E+04    5.1040567E+06    7.9902062E+04    5.1695514E+06
    4.59   300.000   -3.379E+02    5.5259828E+06   -1.4328966E+05   -8.2510512E+04    5.5259828E+06    8.2510488E+04    5.5867620E+06
    4.60   300.000   -3.382E+02    6.0207909E+06   -1.4381925E+05   -8.7540263E+04    6.0207909E+06    8.7540233E+04    6.0770699E+06
    4.61   300.000   -3.386E+02    6.5743277E+06   -1.4606529E+05   -9.3944782E+04    6.5743277E+06    9.3944749E+04    6.6264482E+06
    4.62   300.000   -3.389E+02    7.1672878E+06   -1.4870112E+05   -1.0042421E+05    7.1672878E+06    1.0042417E+05    7.2155647E+06
    4.63   300.000   -3.393E+02    7.7808718E+06   -1.5059414E+05   -1.0591322E+05    7.7808718E+06    1.0591319E+05    7.8255527E+06
    4.64   300.000   -3.397E+02    8.3997868E+06   -1.5083734E+05   -1.0955141E+05    8.3997867E+06    1.0955138E+05    8.4410727E+06
    4.65   300.000   -3.401E+02    9.0081699E+06   -1.4859041E+05   -1.1044963E+05    9.0081699E+06    1.1044962E+05    9.0463107E+06
    4.66   300.000   -3.405E+02    9.5802542E+06   -1.4308980E+05   -1.0767422E+05    9.5802541E+06    1.0767421E+05    9.6156697E+06
    4.67   300.000   -3.409E+02    1.0075489E+07   -1.3399493E+05   -1.0069792E+05    1.0075489E+07    1.0069792E+05    1.0108786E+07
    4.68   300.000   -3.413E+02    1.0446648E+07   -1.2211031E+05   -9.0290785E+04    1.0446648E+07    9.0290790E+04    1.0478467E+07
    4.69   300.000   -3.417E+02    1.0658977E+07   -1.1006076E+05   -7.9259550E+04    1.0658976E+07    7.9259557E+04    1.0689778E+07
    4.70   300.000   -3.421E+02    1.0709085E+07   -1.0196217E+05   -7.1991386E+04    1.0709085E+07    7.1991391E+04    1.0739056E+07
    4.71   300.000   -3.426E+02    1.0630916E+07   -1.0168275E+05   -7.2488628E+04    1.0630916E+07    7.2488628E+04    1.0660110E+07
    4.72   300.000   -3.430E+02    1.0483726E+07   -1.1075298E+05   -8.2142318E+04    1.0483726E+07    8.2142311E+04    1.0512337E+07
    4.73   300.000   -3.434E+02    1.0329335E+07   -1.2755819E+05   -9.8978614E+04    1.0329335E+07    9.8978600E+04    1.0357914E+07
    4.74   300.000   -3.438E+02    1.0212304E+07   -1.4836986E+05   -1.1885317E+05    1.0212304E+07    1.1885315E+05    1.0241821E+07
    4.75   300.000   -3.442E+02    1.0151492E+07   -1.6922884E+05   -1.3746532E+05    1.0151492E+07    1.3746529E+05    1.0183256E+07
    4.76   300.000   -3.446E+02    1.0141943E+07   -1.8719914E+05   -1.5167749E+05    1.0141943E+07    1.5167745E+05    1.0177465E+07
    4.77   300.000   -3.450E+02    1.0161610E+07   -2.0042486E+05   -1.5965403E+05    1.0161610E+07    1.5965398E+05    1.0202381E+07
    4.78   300.000   -3.454E+02    1.0178618E+07   -2.0765856E+05   -1.6054168E+05    1.0178618E+07    1.6054163E+05    1.0225735E+07
    4.79   300.000   -3.459E+02    1.0158381E+07   -2.0807772E+05   -1.5442016E+05    1.0158381E+07    1.5442010E+05    1.0212039E+07
    4.80   300.000   -3.463E+02    1.0072354E+07   -2.0142567E+05   -1.4236554E+05    1.0072354E+07    1.4236549E+05    1.0131414E+07
    4.81   300.000   -3.467E+02    9.9085454E+06   -1.8817567E+05   -1.2621666E+05    9.9085454E+06    1.2621662E+05    9.9705044E+06
    4.82   300.000   -3.471E+02    9.6786801E+06   -1.6965557E+05   -1.0814994E+05    9.6786800E+06    1.0814991E+05    9.7401857E+06
    4.83   300.000   -3.474E+02    9.4144789E+06   -1.4799138E+05   -9.0293382E+04    9.4144789E+06    9.0293367E+04    9.4721769E+06
    4.84   300.000   -3.478E+02    9.1521571E+06   -1.2565088E+05   -7.4369931E+04    9.1521570E+06    7.4369933E+04    9.2034380E+06
    4.85   300.000   -3.482E+02    8.9154853E+06   -1.0484283E+05   -6.1469521E+04    8.9154853E+06    6.1469542E+04    8.9588586E+06
    4.86   300.000   -3.485E+02    8.7105306E+06   -8.7208339E+04   -5.2109247E+04    8.7105306E+06    5.2109285E+04    8.7456297E+06
    4.87   300.000   -3.489E+02    8.5347520E+06   -7.3715582E+04   -4.6365141E+04    8.5347520E+06    4.6365194E+04    8.5621024E+06
    4.88   300.000   -3.492E+02    8.3905745E+06   -6.4421797E+04   -4.3737385E+04    8.3905745E+06    4.3737449E+04    8.4112590E+06
    4.89   300.000   -3.496E+02    8.2917093E+06   -5.8243901E+04   -4.2912093E+04    8.2917093E+06    4.2912161E+04    8.3070411E+06
    4.90   300.000   -3.499E+02    8.2591321E+06   -5.3263953E+04   -4.1981722E+04    8.2591321E+06    4.1981790E+04    8.2704144E+06
    4.91   300.000   -3.502E+02    8.3119179E+06   -4.7683707E+04   -3.9290665E+04    8.3119179E+06    3.9290728E+04    8.3203110E+06
    4.92   300.000   -3.506E+02    8.4586804E+06   -4.0820638E+04   -3.4340826E+04    8.4586804E+06    3.4340881E+04    8.4651602E+06
    4.93   300.000   -3.509E+02    8.6918636E+06   -3.3457954E+04   -2.8086064E+04    8.6918636E+06    2.8086108E+04    8.6972355E+06
    4.94   300.000   -3.512E+02    8.9864726E+06   -2.7359555E+04   -2.2423897E+04    8.9864725E+06    2.2423928E+04    8.9914081E+06
    4.95   300.000   -3.516E+02    9.3059224E+06   -2.4240791E+04   -1.9167546E+04    9.3059223E+06    1.9167566E+04    9.3109956E+06
    4.96   300.000   -3.520E+02    9.6142952E+06   -2.4843741E+04   -1.9141565E+04    9.6142951E+06    1.9141575E+04    9.6199973E+06
    4.97   300.000   -3.523E+02    9.8876218E+06   -2.8718669E+04   -2.1998729E+04    9.8876217E+06    2.1998733E+04    9.8943416E+06
    4.98   300.000   -3.527E+02    1.0116082E+07   -3.4574556E+04   -2.6611667E+04    1.0116082E+07    2.6611666E+04    1.0124045E+07
    4.99   300.000   -3.531E+02    1.0297289E+07   -4.0509969E+04   -3.1327311E+04    1.0297289E+07    3.1327309E+04    1.0306472E+07
    5.00   300.000   -3.535E+02    1.0428852E+07   -4.4061576E+04   -3.3987786E+04    1.0428852E+07    3.3987787E+04    1.0438926E+07
# T(K) = 400.00   Npoints =    1001   V(cm^3) =  1.231E-20
   -5.00   400.000    3.714E+02    2.8021633E+06   -5.3120449E+04   -4.7888871E+04    2.8021633E+06    4.7888881E+04    2.8073949E+06
   -4.99   400.000    3.705E+02    2.7966565E+06   -5.2719468E+04   -4.7688987E+04    2.7966565E+06    4.7688995E+04    2.8016870E+06
   -4.98   400.000    3.695E+02    2.7962315E+06   -5.2478350E+04   -4.7681271E+04    2.7962314E+06    4.7681277E+04    2.8010285E+06
   -4.97   400.000    3.685E+02    2.8018077E+06   -5.2286903E+04   -4.7746289E+04    2.8018077E+06    4.7746292E+04    2.8063483E+06
   -4.96   400.000    3.676E+02    2.8141128E+06   -5.2000814E+04   -4.7734468E+04    2.8141127E+06    4.7734468E+04    2.8183791E+06
   -4.95   400.000    3.667E+02    2.8340110E+06   -5.1467622E+04   -4.7490674E+04    2.8340110E+06    4.7490672E+04    2.8379879E+06
   -4.94   400.000    3.658E+02    2.8624574E+06   -5.0546816E+04   -4.6872322E+04    2.8624575E+06    4.6872318E+04    2.8661320E+06
   -4.93   400.000    3.649E+02    2.9000770E+06   -4.9123179E+04   -4.5760682E+04    2.9000770E+06    4.5760677E+04    2.9034395E+06
   -4.92   400.000    3.641E+02    2.9465842E+06   -4.7115463E+04   -4.4068258E+04    2.9465842E+06    4.4068250E+04    2.9496314E+06
   -4.91   400.000    3.632E+02    3.0003548E+06   -4.4484941E+04   -4.1747294E+04    3.0003549E+06    4.1747285E+04    3.0030925E+06
   -4.90   400.000    3.624E+02    3.0583877E+06   -4.1247256E+04   -3.8802834E+04    3.0583877E+06    3.8802823E+04    3.0608322E+06
   -4.89   400.000    3.615E+02    3.1167204E+06   -3.7485048E+04   -3.5307215E+04    3.1167204E+06    3.5307203E+04    3.1188982E+06
   -4.88   400.000    3.607E+02    3.1711701E+06   -3.3352915E+04   -3.1406850E+04    3.1711702E+06    3.1406836E+04    3.1731163E+06
   -4.87   400.000    3.599E+02    3.2181370E+06   -2.9067129E+04   -2.7313087E+04    3.2181370E+06    2.7313073E+04    3.2198911E+06
   -4.86   400.000    3.591E+02    3.2551813E+06   -2.4880047E+04   -2.3276785E+04    3.2551814E+06    2.3276770E+04    3.2567847E+06
   -4.85   400.000    3.583E+02    3.2811948E+06   -2.1046657E+04   -1.9554082E+04    3.2811949E+06    1.9554067E+04    3.2826875E+06
   -4.84   400.000    3.575E+02    3.2961686E+06   -1.7791344E+04   -1.6371842E+04    3.2961687E+06    1.6371829E+04    3.2975882E+06
   -4.83   400.000    3.567E+02    3.3007254E+06   -1.5277939E+04   -1.3896450E+04    3.3007254E+06    1.3896439E+04    3.3021069E+06
   -4.82   400.000    3.559E+02    3.2956254E+06   -1.3583625E+04   -1.2207163E+04    3.2956254E+06    1.2207155E+04    3.2970019E+06
   -4.81   400.000    3.552E+02    3.2814027E+06   -1.2681790E+04   -1.1279419E+04    3.2814028E+06    1.1279414E+04    3.2828052E+06
   -4.80   400.000    3.544E+02    3.2582165E+06   -1.2443739E+04   -1.0987810E+04    3.2582166E+06    1.0987807E+04    3.2596725E+06
   -4.79   400.000    3.537E+02    3.2259411E+06   -1.2665244E+04   -1.1134023E+04    3.2259411E+06    1.1134023E+04    3.2274723E+06
   -4.78   400.000    3.529E+02    3.1844376E+06   -1.3112257E+04   -1.1493283E+04    3.1844376E+06    1.1493284E+04    3.1860566E+06
   -4.77   400.000    3.522E+02    3.1338550E+06   -1.3570574E+04   -1.1863493E+04    3.1338549E+06    1.1863494E+04    3.1355620E+06
   -4.76   400.000    3.514E+02    3.0747857E+06   -1.3884033E+04   -1.2101664E+04    3.0747857E+06    1.2101664E+04    3.0765681E+06
   -4.75   400.000    3.507E+02    3.0082113E+06   -1.3973083E+04   -1.2139944E+04    3.0082113E+06    1.2139943E+04    3.0100444E+06
   -4.74   400.000    3.499E+02    2.9353266E+06   -1.3833226E+04   -1.1981623E+04    2.9353265E+06    1.1981620E+04    2.9371781E+06
   -4.73   400.000    3.492E+02    2.8574015E+06   -1.3517404E+04   -1.1681873E+04    2.8574014E+06    1.1681866E+04    2.8592370E+06
   -4.72   400.000    3.484E+02    2.7757576E+06   -1.3108909E+04   -1.1320196E+04    2.7757575E+06    1.1320187E+04    2.7775462E+06
   -4.71   400.000    3.477E+02    2.6917926E+06   -1.2693126E+04   -1.0972985E+04    2.6917925E+06    1.0972973E+04    2.6935127E+06
   -4.70   400.000    3.470E+02    2.6069237E+06   -1.2335719E+04   -1.0693684E+04    2.6069236E+06    1.0693669E+04    2.6085657E+06
   -4.69   400.000    3.462E+02    2.5223805E+06   -1.2070923E+04   -1.0503866E+04    2.5223804E+06    1.0503850E+04    2.5239474E+06
   -4.68   400.000    3.455E+02    2.4389219E+06   -1.1899286E+04   -1.0393862E+04    2.4389218E+06    1.0393845E+04    2.4404273E+06
   -4.67   400.000    3.447E+02    2.3566541E+06   -1.1792464E+04   -1.0329731E+04    2.3566541E+06    1.0329715E+04    2.3581168E+06
   -4.66   400.000    3.440E+02    2.2751044E+06   -1.1703157E+04   -1.0264057E+04    2.2751043E+06    1.0264043E+04    2.2765434E+06
   -4.65   400.000    3.433E+02    2.1935646E+06   -1.1579039E+04   -1.0149249E+04    2.1935646E+06    1.0149237E+04    2.1949944E+06
   -4.64   400.000    3.425E+02    2.1115410E+06   -1.1378741E+04   -9.9516820E+03    2.1115409E+06    9.9516719E+03    2.1129680E+06
   -4.63   400.000    3.418E+02    2.0290675E+06   -1.1085464E+04   -9.6627696E+03    2.0290675E+06    9.6627618E+03    2.0304902E+06
   -4.62   400.000    3.411E+02    1.9467169E+06   -1.0711807E+04   -9.3012730E+03    1.9467169E+06    9.3012674E+03    1.9481274E+06
   -4.61   400.000    3.405E+02    1.8653184E+06   -1.0291812E+04   -8.9036265E+03    1.8653184E+06    8.9036226E+03    1.8667066E+06
   -4.60   400.000    3.398E+02    1.7855462E+06   -9.8632235E+03   -8.5058549E+03    1.7855462E+06    8.5058521E+03    1.7869035E+06
   -4.59   400.000    3.392E+02    1.7075837E+06   -9.4495369E+03   -8.1267107E+03    1.7075837E+06    8.1267082E+03    1.7089065E+06
   -4.58   400.000    3.386E+02    1.6310002E+06   -9.0523192E+03   -7.7619081E+03    1.6310002E+06    7.7619054E+03    1.6322906E+06
   -4.57   400.000    3.380E+02    1.5548658E+06   -8.6580791E+03   -7.3929191E+03    1.5548658E+06    7.3929157E+03    1.5561309E+06
   -4.56   400.000    3.374E+02    1.4780379E+06   -8.2541446E+03   -7.0042419E+03    1.4780379E+06    7.0042375E+03    1.4792878E+06
   -4.55   400.000    3.369E+02    1.3995089E+06   -7.8413261E+03   -6.5968141E+03    1.3995089E+06    6.5968086E+03    1.4007535E+06
   -4.54   400.000    3.364E+02    1.3187046E+06   -7.4337649E+03   -6.1879936E+03    1.3187046E+06    6.1879870E+03    1.3199504E+06
   -4.53   400.000    3.359E+02    1.2356555E+06   -7.0470660E+03   -5.7990982E+03    1.2356556E+06    5.7990905E+03    1.2369035E+06
   -4.52   400.000    3.355E+02    1.1510052E+06   -6.6850108E+03   -5.4406968E+03    1.1510053E+06    5.4406882E+03    1.1522496E+06
   -4.51   400.000    3.351E+02    1.0658645E+06   -6.3344181E+03   -5.1055047E+03    1.0658646E+06    5.1054953E+03    1.0670935E+06
   -4.50   400.000    3.347E+02    9.8156981E+05   -5.9696218E+03   -4.7711510E+03    9.8156988E+05    4.7711411E+03    9.8276835E+05
   -4.49   400.000    3.343E+02    8.9942623E+05   -5.5620779E+03   -4.4092080E+03    8.9942631E+05    4.4091979E+03    9.0057918E+05
   -4.48   400.000    3.339E+02    8.2050563E+05   -5.0906579E+03   -3.9962949E+03    8.2050570E+05    3.9962848E+03    8.2160007E+05
   -4.47   400.000    3.335E+02    7.4553832E+05   -4.5498647E+03   -3.5238584E+03    7.4553839E+05    3.5238488E+03    7.4656440E+05
   -4.46   400.000    3.332E+02    6.7490977E+05   -3.9532174E+03   -3.0028179E+03    6.7490984E+05    3.0028091E+03    6.7586024E+05
   -4.45   400.000    3.329E+02    6.0875019E+05   -3.3297034E+03   -2.4602853E+03    6.0875025E+05    2.4602776E+03    6.0961967E+05
   -4.44   400.000    3.326E+02    5.4707643E+05   -2.7145590E+03   -1.9297461E+03    5.4707649E+05    1.9297398E+03    5.4786130E+05
   -4.43   400.000    3.322E+02    4.8992491E+05   -2.1391308E+03   -1.4401525E+03    4.8992496E+05    1.4401477E+03    4.9062394E+05
   -4.42   400.000    3.319E+02    4.3742303E+05   -1.6246412E+03   -1.0094153E+03    4.3742308E+05    1.0094120E+03    4.3803830E+05
   -4.41   400.000    3.316E+02    3.8978632E+05   -1.1814719E+03   -6.4408284E+02    3.8978636E+05    6.4408096E+02    3.9032375E+05
   -4.40   400.000    3.313E+02    3.4727041E+05   -8.1216033E+02   -3.4309641E+02    3.4727045E+05    3.4309578E+02    3.4773951E+05
   -4.39   400.000    3.310E+02    3.1011974E+05   -5.1505572E+02   -1.0212572E+02    3.1011978E+05    1.0212609E+02    3.1053271E+05
   -4.38   400.000    3.307E+02    2.7853338E+05   -2.8656305E+02    8.3859720E+01    2.7853341E+05   -8.3858683E+01    2.7890384E+05
   -4.37   400.000    3.304E+02    2.5263852E+05   -1.2169388E+02    2.2008481E+02    2.5263854E+05   -2.2008343E+02    2.5298032E+05
   -4.36   400.000    3.301E+02    2.3245394E+05   -1.3924104E+01    3.1239410E+02    2.3245396E+05   -3.1239267E+02    2.3278028E+05
   -4.35   400.000    3.297E+02    2.1784175E+05    4.4473445E+01    3.6726788E+02    2.1784177E+05   -3.6726666E+02    2.1816456E+05
   -4.34   400.000    3.294E+02    2.0846455E+05    6.1308951E+01    3.9097041E+02    2.0846456E+05   -3.9096961E+02    2.0879422E+05
   -4.33   400.000    3.290E+02    2.0376923E+05    4.3353631E+01    3.8851811E+02    2.0376924E+05   -3.8851787E+02    2.0411441E+05
   -4.32   400.000    3.285E+02    2.0300741E+05   -3.7716972E+00    3.6346182E+02    2.0300743E+05   -3.6346222E+02    2.0337466E+05
   -4.31   400.000    3.280E+02    2.0528853E+05   -7.4642919E+01    3.1863759E+02    2.0528854E+05   -3.1863866E+02    2.0568182E+05
   -4.30   400.000    3.275E+02    2.0965551E+05   -1.6306595E+02    2.5704559E+02    2.0965552E+05   -2.5704731E+02    2.1007563E+05
   -4.29   400.000    3.269E+02    2.1517404E+05   -2.6216554E+02    1.8200952E+02    2.1517405E+05   -1.8201183E+02    2.1561822E+05
   -4.28   400.000    3.263E+02    2.2102620E+05   -3.6557035E+02    9.6636869E+01    2.2102621E+05   -9.6639702E+01    2.2148842E+05
   -4.27   400.000    3.256E+02    2.2659401E+05   -4.6877576E+02    3.2856213E+00    2.2659402E+05   -3.2888682E+00    2.2706608E+05
   -4.26   400.000    3.249E+02    2.3151359E+05   -5.6963202E+02   -9.6326197E+01    2.3151359E+05    9.6322649E+01    2.3198690E+05
   -4.25   400.000    3.240E+02    2.3568460E+05   -6.6747355E+02   -2.0024764E+02    2.3568460E+05    2.0024392E+02    2.3615183E+05
   -4.24   400.000    3.232E+02    2.3923188E+05   -7.6128424E+02   -3.0510385E+02    2.3923188E+05    3.0510008E+02    2.3968806E+05
   -4.23   400.000    3.222E+02    2.4242962E+05   -8.4810132E+02   -4.0548254E+02    2.4242963E+05    4.0547888E+02    2.4287225E+05
   -4.22   400.000    3.212E+02    2.4560779E+05   -9.2308678E+02   -4.9486199E+02    2.4560780E+05    4.9485857E+02    2.4603602E+05
   -4.21   400.000    3.202E+02    2.4906360E+05   -9.8202040E+02   -5.6847611E+02    2.4906360E+05    5.6847308E+02    2.4947715E+05
   -4.20   400.000    3.190E+02    2.5299764E+05   -1.0256384E+03   -6.2744202E+02    2.5299765E+05    6.2743950E+02    2.5339585E+05
   -4.19   400.000    3.178E+02    2.5748331E+05   -1.0638149E+03   -6.8232045E+02    2.5748332E+05    6.8231852E+02    2.5786481E+05
   -4.18   400.000    3.166E+02    2.6246406E+05   -1.1167782E+03   -7.5365257E+02    2.6246407E+05    7.5365130E+02    2.6282720E+05
   -4.17   400.000    3.152E+02    2.6776483E+05   -1.2113319E+03   -8.6780070E+02    2.6776484E+05    8.6780011E+02    2.6810837E+05
   -4.16   400.000    3.137E+02    2.7310709E+05   -1.3727159E+03   -1.0488942E+03    2.7310710E+05    1.0488943E+03    2.7343092E+05
   -4.15   400.000    3.120E+02    2.7812761E+05   -1.6156631E+03   -1.3103297E+03    2.7812762E+05    1.3103304E+03    2.7843296E+05
   -4.14   400.000    3.102E+02    2.8240699E+05   -1.9389050E+03   -1.6497939E+03    2.8240700E+05    1.6497952E+03    2.8269611E+05
   -4.13   400.000    3.082E+02    2.8551127E+05   -2.3252794E+03   -2.0496901E+03    2.8551128E+05    2.0496917E+03    2.8578687E+05
   -4.12   400.000    3.060E+02    2.8704137E+05   -2.7466029E+03   -2.4820150E+03    2.8704138E+05    2.4820169E+03    2.8730597E+05
   -4.11   400.000    3.036E+02    2.8668068E+05   -3.1706865E+03   -2.9151249E+03    2.8668068E+05    2.9151269E+03    2.8693624E+05
   -4.10   400.000    3.009E+02    2.8423286E+05   -3.5678329E+03   -3.3199012E+03    2.8423286E+05    3.3199031E+03    2.8448079E+05
   -4.09   400.000    2.979E+02    2.7964787E+05   -3.9152582E+03   -3.6739379E+03    2.7964788E+05    3.6739395E+03    2.7988920E+05
   -4.08   400.000    2.947E+02    2.7303740E+05   -4.1992530E+03   -3.9636610E+03    2.7303741E+05    3.9636620E+03    2.7327300E+05
   -4.07   400.000    2.913E+02    2.6468031E+05   -4.4157524E+03   -4.1850112E+03    2.6468031E+05    4.1850117E+03    2.6491106E+05
   -4.06   400.000    2.876E+02    2.5501524E+05   -4.5699013E+03   -4.3431483E+03    2.5501525E+05    4.3431482E+03    2.5524200E+05
   -4.05   400.000    2.837E+02    2.4461569E+05   -4.6745470E+03   -4.4509872E+03    2.4461570E+05    4.4509865E+03    2.4483926E+05
   -4.04   400.000    2.797E+02    2.3414509E+05   -4.7472703E+03   -4.5261451E+03    2.3414509E+05    4.5261440E+03    2.3436622E+05
   -4.03   400.000    2.756E+02    2.2429552E+05   -4.8060808E+03   -4.5864875E+03    2.2429553E+05    4.5864859E+03    2.2451512E+05
   -4.02   400.000    2.714E+02    2.1571954E+05   -4.8648758E+03   -4.6454741E+03    2.1571955E+05    4.6454723E+03    2.1593895E+05
   -4.01   400.000    2.672E+02    2.0896833E+05   -4.9303445E+03   -4.7090638E+03    2.0896833E+05    4.7090619E+03    2.0918961E+05
   -4.00   400.000    2.630E+02    2.0444852E+05   -5.0016495E+03   -4.7755149E+03    2.0444853E+05    4.7755130E+03    2.0467466E+05
   -3.99   400.000    2.588E+02    2.0240451E+05   -5.0729992E+03   -4.8381462E+03    2.0240451E+05    4.8381443E+03    2.0263936E+05
   -3.98   400.000    2.546E+02    2.0292370E+05   -5.1378288E+03   -4.8896977E+03    2.0292370E+05    4.8896960E+03    2.0317183E+05
   -3.97   400.000    2.505E+02    2.0595491E+05   -5.1926542E+03   -4.9262952E+03    2.0595492E+05    4.9262937E+03    2.0622128E+05
   -3.96   400.000    2.463E+02    2.1132869E+05   -5.2391813E+03   -4.9495751E+03    2.1132869E+05    4.9495737E+03    2.1161830E+05
   -3.95   400.000    2.422E+02    2.1877472E+05   -5.2843734E+03   -4.9667003E+03    2.1877472E+05    4.9666991E+03    2.1909239E+05
   -3.94   400.000    2.380E+02    2.2794043E+05   -5.3389772E+03   -4.9888378E+03    2.2794043E+05    4.9888366E+03    2.2829057E+05
   -3.93   400.000    2.338E+02    2.3841883E+05   -5.4152041E+03   -5.0288667E+03    2.3841883E+05    5.0288656E+03    2.3880517E+05
   -3.92   400.000    2.295E+02    2.4979048E+05   -5.5242429E+03   -5.0990176E+03    2.4979048E+05    5.0990165E+03    2.5021570E+05
   -3.91   400.000    2.252E+02    2.6167706E+05   -5.6742569E+03   -5.2090258E+03    2.6167706E+05    5.2090247E+03    2.6214229E+05
   -3.90   400.000    2.208E+02    2.7379597E+05   -5.8693079E+03   -5.3650962E+03    2.7379597E+05    5.3650953E+03    2.7430018E+05
   -3.89   400.000    2.163E+02    2.8600148E+05   -6.1092143E+03   -5.5695504E+03    2.8600148E+05    5.5695497E+03    2.8654115E+05
   -3.88   400.000    2.118E+02    2.9830188E+05   -6.3899836E+03   -5.8207733E+03    2.9830187E+05    5.8207728E+03    2.9887108E+05
   -3.87   400.000    2.073E+02    3.1085134E+05   -6.7043935E+03   -6.1131740E+03    3.1085133E+05    6.1131738E+03    3.1144255E+05
   -3.86   400.000    2.029E+02    3.2392485E+05   -7.0425231E+03   -6.4372049E+03    3.2392484E+05    6.4372049E+03    3.2453016E+05
   -3.85   400.000    1.984E+02    3.3788396E+05   -7.3924054E+03   -6.7798091E+03    3.3788395E+05    6.7798093E+03    3.3849655E+05
   -3.84   400.000    1.941E+02    3.5313217E+05   -7.7411936E+03   -7.1257537E+03    3.5313215E+05    7.1257541E+03    3.5374759E+05
   -3.83   400.000    1.898E+02    3.7004965E+05   -8.0770774E+03   -7.4600083E+03    3.7004964E+05    7.4600087E+03    3.7066671E+05
   -3.82   400.000    1.857E+02    3.8890212E+05   -8.3917224E+03   -7.7708080E+03    3.8890211E+05    7.7708082E+03    3.8952302E+05
   -3.81   400.000    1.817E+02    4.0974058E+05   -8.6825887E+03   -8.0526177E+03    4.0974056E+05    8.0526176E+03    4.1037053E+05
   -3.80   400.000    1.778E+02    4.3233442E+05   -8.9543664E+03   -8.3081028E+03    4.3233440E+05    8.3081022E+03    4.3298067E+05
   -3.79   400.000    1.742E+02    4.5618470E+05   -9.2189428E+03   -8.5483904E+03    4.5618469E+05    8.5483893E+03    4.5685524E+05
   -3.78   400.000    1.707E+02    4.8063296E+05   -9.4936488E+03   -8.7912572E+03    4.8063295E+05    8.7912553E+03    4.8133534E+05
   -3.77   400.000    1.674E+02    5.0502602E+05   -9.7978831E+03   -9.0573209E+03    5.0502600E+05    9.0573184E+03    5.0576657E+05
   -3.76   400.000    1.643E+02    5.2885403E+05   -1.0148499E+04   -9.3647754E+03    5.2885401E+05    9.3647720E+03    5.2963773E+05
   -3.75   400.000    1.614E+02    5.5178251E+05   -1.0554494E+04   -9.7235436E+03    5.5178249E+05    9.7235394E+03    5.5261344E+05
   -3.74   400.000    1.587E+02    5.7355506E+05   -1.1011688E+04   -1.0129913E+04    5.7355504E+05    1.0129908E+04    5.7443681E+05
   -3.73   400.000    1.563E+02    5.9382114E+05   -1.1498692E+04   -1.0563095E+04    5.9382112E+05    1.0563089E+04    5.9475672E+05
   -3.72   400.000    1.540E+02    6.1199905E+05   -1.1976702E+04   -1.0985980E+04    6.1199903E+05    1.0985974E+04    6.1298975E+05
   -3.71   400.000    1.520E+02    6.2728540E+05   -1.2396201E+04   -1.1352561E+04    6.2728538E+05    1.1352554E+04    6.2832902E+05
   -3.70   400.000    1.501E+02    6.3885981E+05   -1.2711262E+04   -1.1622223E+04    6.3885979E+05    1.1622216E+04    6.3994883E+05
   -3.69   400.000    1.484E+02    6.4622365E+05   -1.2896856E+04   -1.1776196E+04    6.4622363E+05    1.1776189E+04    6.4734429E+05
   -3.68   400.000    1.468E+02    6.4950887E+05   -1.2960079E+04   -1.1827477E+04    6.4950885E+05    1.1827470E+04    6.5064145E+05
   -3.67   400.000    1.454E+02    6.4957282E+05   -1.2937462E+04   -1.1816933E+04    6.4957280E+05    1.1816927E+04    6.5069332E+05
   -3.66   400.000    1.441E+02    6.4779177E+05   -1.2878295E+04   -1.1795813E+04    6.4779175E+05    1.1795808E+04    6.4887423E+05
   -3.65   400.000    1.429E+02    6.4562552E+05   -1.2822698E+04   -1.1803398E+04    6.4562550E+05    1.1803393E+04    6.4664480E+05
   -3.64   400.000    1.417E+02    6.4414011E+05   -1.2785925E+04   -1.1851245E+04    6.4414009E+05    1.1851241E+04    6.4507477E+05
   -3.63   400.000    1.406E+02    6.4368203E+05   -1.2755179E+04   -1.1920446E+04    6.4368202E+05    1.1920443E+04    6.4451675E+05
   -3.62   400.000    1.396E+02    6.4381240E+05   -1.2697049E+04   -1.1970048E+04    6.4381238E+05    1.1970046E+04    6.4453938E+05
   -3.61   400.000    1.386E+02    6.4349814E+05   -1.2569152E+04   -1.1950072E+04    6.4349812E+05    1.1950071E+04    6.4411720E+05
   -3.60   400.000    1.377E+02    6.4146769E+05   -1.2331323E+04   -1.1813939E+04    6.4146768E+05    1.1813939E+04    6.4198506E+05
   -3.59   400.000    1.367E+02    6.3659628E+05   -1.1955808E+04   -1.1529399E+04    6.3659627E+05    1.1529400E+04    6.3702268E+05
   -3.58   400.000    1.358E+02    6.2819702E+05   -1.1437037E+04   -1.1088412E+04    6.2819701E+05    1.1088414E+04    6.2854564E+05
   -3.57   400.000    1.349E+02    6.1615016E+05   -1.0798453E+04   -1.0513636E+04    6.1615015E+05    1.0513638E+04    6.1643497E+05
   -3.56   400.000    1.340E+02    6.0087750E+05   -1.0091503E+04   -9.8568780E+03    6.0087749E+05    9.8568811E+03    6.0111212E+05
   -3.55   400.000    1.331E+02    5.8322210E+05   -9.3844863E+03   -9.1874453E+03    5.8322210E+05    9.1874488E+03    5.8341914E+05
   -3.54   400.000    1.323E+02    5.6429777E+05   -8.7449859E+03   -8.5741739E+03    5.6429777E+05    8.5741777E+03    5.6446858E+05
   -3.53   400.000    1.314E+02    5.4534026E+05   -8.2233625E+03   -8.0686750E+03    5.4534027E+05    8.0686791E+03    5.4549496E+05
   -3.52   400.000    1.306E+02    5.2756569E+05   -7.8438228E+03   -7.6962700E+03    5.2756570E+05    7.6962742E+03    5.2771325E+05
   -3.51   400.000    1.297E+02    5.1204438E+05   -7.6054181E+03   -7.4569607E+03    5.1204439E+05    7.4569649E+03    5.1219285E+05
   -3.50   400.000    1.288E+02    4.9961277E+05   -7.4911585E+03   -7.3345961E+03    4.9961278E+05    7.3346002E+03    4.9976934E+05
   -3.49   400.000    1.279E+02    4.9083755E+05   -7.4807370E+03   -7.3097083E+03    4.9083756E+05    7.3097121E+03    4.9100859E+05
   -3.48   400.000    1.270E+02    4.8601564E+05   -7.5613764E+03   -7.3704893E+03    4.8601564E+05    7.3704927E+03    4.8620653E+05
   -3.47   400.000    1.261E+02    4.8517176E+05   -7.7322911E+03   -7.5173345E+03    4.8517177E+05    7.5173372E+03    4.8538672E+05
   -3.46   400.000    1.252E+02    4.8802798E+05   -8.0013331E+03   -7.7594409E+03    4.8802799E+05    7.7594430E+03    4.8826988E+05
   -3.45   400.000    1.242E+02    4.9395941E+05   -8.3763901E+03   -8.1059755E+03    4.9395942E+05    8.1059766E+03    4.9422983E+05
   -3.44   400.000    1.233E+02    5.0198779E+05   -8.8567472E+03   -8.5570424E+03    5.0198780E+05    8.5570428E+03    5.0228750E+05
   -3.43   400.000    1.223E+02    5.1086891E+05   -9.4293813E+03   -9.0995445E+03    5.1086892E+05    9.0995441E+03    5.1119875E+05
   -3.42   400.000    1.213E+02    5.1929045E+05   -1.0072425E+04   -9.7103541E+03    5.1929045E+05    9.7103531E+03    5.1965252E+05
   -3.41   400.000    1.203E+02    5.2613420E+05   -1.0764494E+04   -1.0365647E+04    5.2613420E+05    1.0365646E+04    5.2653305E+05
   -3.40   400.000    1.194E+02    5.3071204E+05   -1.1495770E+04   -1.1052352E+04    5.3071204E+05    1.1052350E+04    5.3115546E+05
   -3.39   400.000    1.184E+02    5.3288914E+05   -1.2275592E+04   -1.1776410E+04    5.3288913E+05    1.1776409E+04    5.3338832E+05
   -3.38   400.000    1.174E+02    5.3305820E+05   -1.3132337E+04   -1.2563506E+04    5.3305819E+05    1.2563505E+04    5.3362702E+05
   -3.37   400.000    1.164E+02    5.3199121E+05   -1.4104302E+04   -1.3450822E+04    5.3199121E+05    1.3450821E+04    5.3264469E+05
   -3.36   400.000    1.154E+02    5.3063504E+05   -1.5223615E+04   -1.4471665E+04    5.3063504E+05    1.4471664E+04    5.3138699E+05
   -3.35   400.000    1.144E+02    5.2991755E+05   -1.6497362E+04   -1.5636961E+04    5.2991755E+05    1.5636961E+04    5.3077795E+05
   -3.34   400.000    1.134E+02    5.3060181E+05   -1.7891282E+04   -1.6918710E+04    5.3060180E+05    1.6918710E+04    5.3157437E+05
   -3.33   400.000    1.124E+02    5.3319391E+05   -1.9321869E+04   -1.8241045E+04    5.3319390E+05    1.8241045E+04    5.3427472E+05
   -3.32   400.000    1.113E+02    5.3789578E+05   -2.0661524E+04   -1.9483674E+04    5.3789577E+05    1.9483674E+04    5.3907362E+05
   -3.31   400.000    1.102E+02    5.4459941E+05   -2.1757628E+04   -2.0499064E+04    5.4459940E+05    2.0499064E+04    5.4585796E+05
   -3.30   400.000    1.092E+02    5.5292806E+05   -2.2461198E+04   -2.1139938E+04    5.5292804E+05    2.1139938E+04    5.5424930E+05
   -3.29   400.000    1.081E+02    5.6232839E+05   -2.2657355E+04   -2.1289988E+04    5.6232837E+05    2.1289988E+04    5.6369574E+05
   -3.28   400.000    1.070E+02    5.7220270E+05   -2.2289648E+04   -2.0889778E+04    5.7220267E+05    2.0889778E+04    5.7360254E+05
   -3.27   400.000    1.059E+02    5.8205198E+05   -2.1372450E+04   -1.9951219E+04    5.8205195E+05    1.9951218E+04    5.8347318E+05
   -3.26   400.000    1.048E+02    5.9159296E+05   -1.9988708E+04   -1.8556699E+04    5.9159293E+05    1.8556699E+04    5.9302494E+05
   -3.25   400.000    1.037E+02    6.0082058E+05   -1.8273643E+04   -1.6842781E+04    6.0082055E+05    1.6842780E+04    6.0225141E+05
   -3.24   400.000    1.026E+02    6.1000947E+05   -1.6388599E+04   -1.4972787E+04    6.1000944E+05    1.4972786E+04    6.1142525E+05
   -3.23   400.000    1.015E+02    6.1966765E+05   -1.4492063E+04   -1.3106133E+04    6.1966762E+05    1.3106130E+04    6.2105355E+05
   -3.22   400.000    1.004E+02    6.3045795E+05   -1.2715490E+04   -1.1372997E+04    6.3045793E+05    1.1372994E+04    6.3180042E+05
   -3.21   400.000    9.935E+01    6.4308986E+05   -1.1149670E+04   -9.8606067E+03    6.4308984E+05    9.8606024E+03    6.4437891E+05
   -3.20   400.000    9.827E+01    6.5818162E+05   -9.8436232E+03   -8.6129836E+03    6.5818160E+05    8.6129783E+03    6.5941224E+05
   -3.19   400.000    9.720E+01    6.7611378E+05   -8.8136948E+03   -7.6412949E+03    6.7611377E+05    7.6412886E+03    6.7728617E+05
   -3.18   400.000    9.613E+01    6.9692211E+05   -8.0572521E+03   -6.9386100E+03    6.9692210E+05    6.9386027E+03    6.9804075E+05
   -3.17   400.000    9.506E+01    7.2027282E+05   -7.5642908E+03   -6.4920702E+03    7.2027281E+05    6.4920619E+03    7.2134503E+05
   -3.16   400.000    9.399E+01    7.4552033E+05   -7.3219771E+03   -6.2875129E+03    7.4552032E+05    6.2875037E+03    7.4655478E+05
   -3.15   400.000    9.291E+01    7.7180505E+05   -7.3112342E+03   -6.3058679E+03    7.7180504E+05    6.3058580E+03    7.7281041E+05
   -3.14   400.000    9.183E+01    7.9814780E+05   -7.4989596E+03   -6.5151269E+03    7.9814779E+05    6.5151164E+03    7.9913162E+05
   -3.13   400.000    9.075E+01    8.2353398E+05   -7.8317809E+03   -6.8638925E+03    8.2353397E+05    6.8638817E+03    8.2450186E+05
   -3.12   400.000    8.966E+01    8.4700905E+05   -8.2364583E+03   -7.2815981E+03    8.4700904E+05    7.2815873E+03    8.4796390E+05
   -3.11   400.000    8.857E+01    8.6779378E+05   -8.6291485E+03   -7.6875403E+03    8.6779377E+05    7.6875296E+03    8.6873538E+05
   -3.10   400.000    8.747E+01    8.8539168E+05   -8.9322688E+03   -8.0073940E+03    8.8539167E+05    8.0073836E+03    8.8631655E+05
   -3.09   400.000    8.636E+01    8.9964346E+05   -9.0945779E+03   -8.1927807E+03    8.9964345E+05    8.1927706E+03    9.0054525E+05
   -3.08   400.000    8.524E+01    9.1070240E+05   -9.1079162E+03   -8.2373730E+03    9.1070239E+05    8.2373632E+03    9.1157294E+05
   -3.07   400.000    8.409E+01    9.1894005E+05   -9.0138036E+03   -8.1829327E+03    9.1894005E+05    8.1829232E+03    9.1977092E+05
   -3.06   400.000    8.291E+01    9.2481883E+05   -8.8958110E+03   -8.1114813E+03    9.2481883E+05    8.1114721E+03    9.2560316E+05
   -3.05   400.000    8.170E+01    9.2877701E+05   -8.8589808E+03   -8.1250281E+03    9.2877700E+05    8.1250191E+03    9.2951096E+05
   -3.04   400.000    8.045E+01    9.3116223E+05   -9.0031057E+03   -8.3195226E+03    9.3116223E+05    8.3195139E+03    9.3184581E+05
   -3.03   400.000    7.914E+01    9.3222005E+05   -9.3991051E+03   -8.7619660E+03    9.3222005E+05    8.7619576E+03    9.3285719E+05
   -3.02   400.000    7.777E+01    9.3210908E+05   -1.0075575E+04   -9.4775136E+03    9.3210908E+05    9.4775054E+03    9.3270714E+05
   -3.01   400.000    7.633E+01    9.3090548E+05   -1.1017462E+04   -1.0448459E+04    9.3090549E+05    1.0448451E+04    9.3147449E+05
   -3.00   400.000    7.482E+01    9.2859028E+05   -1.2173889E+04   -1.1622189E+04    9.2859028E+05    1.1622181E+04    9.2914198E+05
   -2.99   400.000    7.323E+01    9.2505158E+05   -1.3469659E+04   -1.2922705E+04    9.2505158E+05    1.2922697E+04    9.2559854E+05
   -2.98   400.000    7.155E+01    9.2013583E+05   -1.4815425E+04   -1.4260815E+04    9.2013583E+05    1.4260809E+04    9.2069044E+05
   -2.97   400.000    6.979E+01    9.1373883E+05   -1.6114767E+04   -1.5541258E+04    9.1373882E+05    1.5541253E+04    9.1431233E+05
   -2.96   400.000    6.794E+01    9.0588197E+05   -1.7270856E+04   -1.6669447E+04    9.0588196E+05    1.6669442E+04    9.0648337E+05
   -2.95   400.000    6.601E+01    8.9672091E+05   -1.8197900E+04   -1.7562896E+04    8.9672091E+05    1.7562892E+04    8.9735591E+05
   -2.94   400.000    6.399E+01    8.8648532E+05   -1.8839405E+04   -1.8169241E+04    8.8648531E+05    1.8169237E+04    8.8715548E+05
   -2.93   400.000    6.189E+01    8.7540039E+05   -1.9187418E+04   -1.8484935E+04    8.7540038E+05    1.8484932E+04    8.7610286E+05
   -2.92   400.000    5.971E+01    8.6364796E+05   -1.9290822E+04   -1.8562815E+04    8.6364795E+05    1.8562813E+04    8.6437596E+05
   -2.91   400.000    5.746E+01    8.5138890E+05   -1.9243656E+04   -1.8499730E+04    8.5138888E+05    1.8499728E+04    8.5213281E+05
   -2.90   400.000    5.515E+01    8.3882395E+05   -1.9155749E+04   -1.8406741E+04    8.3882393E+05    1.8406738E+04    8.3957294E+05
   -2.89   400.000    5.279E+01    8.2624696E+05   -1.9119077E+04   -1.8375418E+04    8.2624695E+05    1.8375415E+04    8.2699061E+05
   -2.88   400.000    5.040E+01    8.1404889E+05   -1.9185679E+04   -1.8455987E+04    8.1404888E+05    1.8455983E+04    8.1477857E+05
   -2.87   400.000    4.800E+01    8.0265676E+05   -1.9365457E+04   -1.8655598E+04    8.0265674E+05    1.8655594E+04    8.0336660E+05
   -2.86   400.000    4.562E+01    7.9242445E+05   -1.9640794E+04   -1.8953567E+04    7.9242444E+05    1.8953562E+04    7.9311167E+05
   -2.85   400.000    4.327E+01    7.8351725E+05   -1.9986624E+04   -1.9322140E+04    7.8351724E+05    1.9322135E+04    7.8418172E+05
   -2.84   400.000    4.099E+01    7.7584130E+05   -2.0383764E+04   -1.9740399E+04    7.7584128E+05    1.9740393E+04    7.7648465E+05
   -2.83   400.000    3.878E+01    7.6905882E+05   -2.0819635E+04   -2.0195204E+04    7.6905881E+05    2.0195197E+04    7.6968324E+05
   -2.82   400.000    3.667E+01    7.6269848E+05   -2.1279464E+04   -2.0672164E+04    7.6269846E+05    2.0672156E+04    7.6330576E+05
   -2.81   400.000    3.468E+01    7.5632312E+05   -2.1736315E+04   -2.1145072E+04    7.5632311E+05    2.1145064E+04    7.5691435E+05
   -2.80   400.000    3.280E+01    7.4967781E+05   -2.2146489E+04   -2.1570700E+04    7.4967779E+05    2.1570692E+04    7.5025358E+05
   -2.79   400.000    3.105E+01    7.4274084E+05   -2.2451064E+04   -2.1890001E+04    7.4274082E+05    2.1889994E+04    7.4330189E+05
   -2.78   400.000    2.942E+01    7.3565334E+05   -2.2580533E+04   -2.2032823E+04    7.3565333E+05    2.2032816E+04    7.3620104E+05
   -2.77   400.000    2.791E+01    7.2857572E+05   -2.2460847E+04   -2.1924305E+04    7.2857571E+05    2.1924299E+04    7.2911225E+05
   -2.76   400.000    2.652E+01    7.2155920E+05   -2.2022700E+04   -2.1494539E+04    7.2155919E+05    2.1494534E+04    7.2208735E+05
   -2.75   400.000    2.523E+01    7.1449719E+05   -2.1216240E+04   -2.0693492E+04    7.1449718E+05    2.0693487E+04    7.1501993E+05
   -2.74   400.000    2.405E+01    7.0715809E+05   -2.0028540E+04   -1.9508492E+04    7.0715808E+05    1.9508488E+04    7.0767813E+05
   -2.73   400.000    2.295E+01    6.9924926E+05   -1.8495731E+04   -1.7976209E+04    6.9924925E+05    1.7976206E+04    6.9976877E+05
   -2.72   400.000    2.194E+01    6.9045673E+05   -1.6702244E+04   -1.6181621E+04    6.9045672E+05    1.6181619E+04    6.9097735E+05
   -2.71   400.000    2.101E+01    6.8043909E+05   -1.4767160E+04   -1.4243996E+04    6.8043908E+05    1.4243994E+04    6.8096224E+05
   -2.70   400.000    2.015E+01    6.6879617E+05   -1.2825143E+04   -1.2297456E+04    6.6879616E+05    1.2297456E+04    6.6932384E+05
   -2.69   400.000    1.935E+01    6.5505846E+05   -1.1009561E+04   -1.0473887E+04    6.5505845E+05    1.0473887E+04    6.5559412E+05
   -2.68   400.000    1.861E+01    6.3874035E+05   -9.4390948E+03   -8.8895915E+03    6.3874034E+05    8.8895916E+03    6.3928985E+05
   -2.67   400.000    1.792E+01    6.1946416E+05   -8.2042878E+03   -7.6322143E+03    6.1946415E+05    7.6322146E+03    6.2003623E+05
   -2.66   400.000    1.728E+01    5.9710490E+05   -7.3526826E+03   -6.7465201E+03    5.9710489E+05    6.7465205E+03    5.9771105E+05
   -2.65   400.000    1.668E+01    5.7187373E+05   -6.8773557E+03   -6.2237762E+03    5.7187372E+05    6.2237768E+03    5.7252730E+05
   -2.64   400.000    1.611E+01    5.4429168E+05   -6.7165003E+03   -6.0022597E+03    5.4429167E+05    6.0022603E+03    5.4500591E+05
   -2.63   400.000    1.557E+01    5.1508232E+05   -6.7679546E+03   -5.9825862E+03    5.1508231E+05    5.9825869E+03    5.1586768E+05
   -2.62   400.000    1.506E+01    4.8506020E+05   -6.9152601E+03   -6.0541338E+03    4.8506019E+05    6.0541345E+03    4.8592132E+05
   -2.61   400.000    1.457E+01    4.5506758E+05   -7.0559946E+03   -6.1229611E+03    4.5506758E+05    6.1229618E+03    4.5600061E+05
   -2.60   400.000    1.410E+01    4.2595032E+05   -7.1223049E+03   -6.1309672E+03    4.2595032E+05    6.1309679E+03    4.2694166E+05
   -2.59   400.000    1.365E+01    3.9852779E+05   -7.0883263E+03   -6.0612083E+03    3.9852779E+05    6.0612090E+03    3.9955491E+05
   -2.58   400.000    1.320E+01    3.7352796E+05   -6.9662911E+03   -5.9318511E+03    3.7352797E+05    5.9318517E+03    3.7456241E+05
   -2.57   400.000    1.277E+01    3.5149849E+05   -6.7972212E+03   -5.7854791E+03    3.5149849E+05    5.7854796E+03    3.5251024E+05
   -2.56   400.000    1.234E+01    3.3272952E+05   -6.6406198E+03   -5.6786379E+03    3.3272952E+05    5.6786384E+03    3.3369151E+05
   -2.55   400.000    1.193E+01    3.1722246E+05   -6.5635930E+03   -5.6719177E+03    3.1722246E+05    5.6719181E+03    3.1811414E+05
   -2.54   400.000    1.152E+01    3.0472229E+05   -6.6283373E+03   -5.8189718E+03    3.0472229E+05    5.8189722E+03    3.0553166E+05
   -2.53   400.000    1.111E+01    2.9481043E+05   -6.8791127E+03   -6.1550410E+03    2.9481043E+05    6.1550416E+03    2.9553450E+05
   -2.52   400.000    1.072E+01    2.8703299E+05   -7.3324828E+03   -6.6884254E+03    2.8703299E+05    6.6884264E+03    2.8767705E+05
   -2.51   400.000    1.034E+01    2.8102308E+05   -7.9744533E+03   -7.3984132E+03    2.8102307E+05    7.3984146E+03    2.8159911E+05
   -2.50   400.000    9.975E+00    2.7657762E+05   -8.7651396E+03   -8.2403089E+03    2.7657761E+05    8.2403109E+03    2.7710244E+05
   -2.49   400.000    9.620E+00    2.7367052E+05   -9.6480004E+03   -9.1546959E+03    2.7367052E+05    9.1546986E+03    2.7416382E+05
   -2.48   400.000    9.278E+00    2.7240785E+05   -1.0558496E+04   -1.0075926E+04    2.7240784E+05    1.0075930E+04    2.7289041E+05
   -2.47   400.000    8.949E+00    2.7294064E+05   -1.1427232E+04   -1.0935020E+04    2.7294063E+05    1.0935024E+04    2.7343284E+05
   -2.46   400.000    8.632E+00    2.7535048E+05   -1.2175835E+04   -1.1655289E+04    2.7535047E+05    1.1655293E+04    2.7587102E+05
   -2.45   400.000    8.325E+00    2.7952662E+05   -1.2709762E+04   -1.2144886E+04    2.7952661E+05    1.2144891E+04    2.8009148E+05
   -2.44   400.000    8.028E+00    2.8506692E+05   -1.2917903E+04   -1.2296129E+04    2.8506691E+05    1.2296134E+04    2.8568868E+05
   -2.43   400.000    7.738E+00    2.9124442E+05   -1.2688702E+04   -1.2001360E+04    2.9124440E+05    1.2001365E+04    2.9193174E+05
   -2.42   400.000    7.456E+00    2.9706970E+05   -1.1943338E+04   -1.1185957E+04    2.9706968E+05    1.1185962E+04    2.9782706E+05
   -2.41   400.000    7.181E+00    3.0144472E+05   -1.0672262E+04   -9.8448022E+03    3.0144470E+05    9.8448062E+03    3.0227216E+05
   -2.40   400.000    6.913E+00    3.0336007E+05   -8.9531891E+03   -8.0601434E+03    3.0336005E+05    8.0601467E+03    3.0425310E+05
   -2.39   400.000    6.653E+00    3.0206219E+05   -6.9357572E+03   -5.9858695E+03    3.0206217E+05    5.9858722E+03    3.0301205E+05
   -2.38   400.000    6.400E+00    2.9712929E+05   -4.7986954E+03   -3.8040046E+03    2.9712927E+05    3.8040066E+03    2.9812396E+05
   -2.37   400.000    6.157E+00    2.8844536E+05   -2.7038307E+03   -1.6781439E+03    2.8844534E+05    1.6781452E+03    2.8947102E+05
   -2.36   400.000    5.923E+00    2.7611791E+05   -7.7123920E+02    2.7135587E+02    2.7611789E+05   -2.7135510E+02    2.7716049E+05
   -2.35   400.000    5.699E+00    2.6040768E+05    9.1912001E+02    1.9649460E+03    2.6040766E+05   -1.9649457E+03    2.6145349E+05
   -2.34   400.000    5.486E+00    2.4170964E+05    2.3137901E+03    3.3492099E+03    2.4170962E+05   -3.3492098E+03    2.4274504E+05
   -2.33   400.000    5.286E+00    2.2057229E+05    3.3778063E+03    4.3883163E+03    2.2057227E+05   -4.3883164E+03    2.2158278E+05
   -2.32   400.000    5.101E+00    1.9770910E+05    4.0971583E+03    5.0669115E+03    1.9770908E+05   -5.0669118E+03    1.9867883E+05
   -2.31   400.000    4.930E+00    1.7396507E+05    4.4839862E+03    5.3964360E+03    1.7396505E+05   -5.3964364E+03    1.7487750E+05
   -2.30   400.000    4.775E+00    1.5023650E+05    4.5759105E+03    5.4155217E+03    1.5023649E+05   -5.4155221E+03    1.5107610E+05
   -2.29   400.000    4.638E+00    1.2737089E+05    4.4284512E+03    5.1827937E+03    1.2737088E+05   -5.1827941E+03    1.2812522E+05
   -2.28   400.000    4.518E+00    1.0607854E+05    4.1051210E+03    4.7665273E+03    1.0607853E+05   -4.7665277E+03    1.0673994E+05
   -2.27   400.000    4.416E+00    8.6875013E+04    3.6691625E+03    4.2354349E+03    8.6875006E+04   -4.2354352E+03    8.7441279E+04
   -2.26   400.000    4.330E+00    7.0059451E+04    3.1777342E+03    3.6518290E+03    7.0059445E+04   -3.6518293E+03    7.0533540E+04
   -2.25   400.000    4.259E+00    5.5725304E+04    2.6779183E+03    3.0668639E+03    5.5725300E+04   -3.0668642E+03    5.6114246E+04
   -2.24   400.000    4.201E+00    4.3795618E+04    2.2043885E+03    2.5178370E+03    4.3795614E+04   -2.5178372E+03    4.4109063E+04
   -2.23   400.000    4.155E+00    3.4071994E+04    1.7790292E+03    2.0278188E+03    3.4071992E+04   -2.0278190E+03    3.4320781E+04
   -2.22   400.000    4.119E+00    2.6285757E+04    1.4124263E+03    1.6074122E+03    2.6285755E+04   -1.6074124E+03    2.6480741E+04
   -2.21   400.000    4.090E+00    2.0142123E+04    1.1065531E+03    1.2578095E+03    2.0142122E+04   -1.2578096E+03    2.0293378E+04
   -2.20   400.000    4.068E+00    1.5352567E+04    8.5775210E+02    9.7413342E+02    1.5352566E+04   -9.7413351E+02    1.5468947E+04
   -2.19   400.000    4.051E+00    1.1654755E+04    6.5933403E+02    7.4831803E+02    1.1654754E+04   -7.4831810E+02    1.1743738E+04
   -2.18   400.000    4.039E+00    8.8221278E+03    5.0348914E+02    5.7120542E+02    8.8221272E+03   -5.7120547E+02    8.8898435E+03
   -2.17   400.000    4.029E+00    6.6661971E+03    3.8249830E+02    4.3386126E+02    6.6661967E+03   -4.3386130E+02    6.7175596E+03
   -2.16   400.000    4.021E+00    5.0344560E+03    2.8938526E+02    3.2827126E+02    5.0344556E+03   -3.2827129E+02    5.0733416E+03
   -2.15   400.000    4.015E+00    3.8061131E+03    2.1818559E+02    2.4761680E+02    3.8061129E+03   -2.4761683E+02    3.8355441E+03
   -2.14   400.000    4.010E+00    2.8871161E+03    1.6398436E+02    1.8629921E+02    2.8871159E+03   -1.8629922E+02    2.9094308E+03
   -2.13   400.000    4.006E+00    2.2053104E+03    1.2283226E+02    1.3983340E+02    2.2053102E+03   -1.3983341E+02    2.2223114E+03
   -2.12   400.000    4.003E+00    1.7061578E+03    9.1609916E+01    1.0468806E+02    1.7061577E+03   -1.0468807E+02    1.7192359E+03
   -2.11   400.000    4.000E+00    1.3491742E+03    6.7880784E+01    7.8115820E+01    1.3491742E+03   -7.8115830E+01    1.3594092E+03
   -2.10   400.000    3.997E+00    1.1051008E+03    4.9752746E+01    5.7995714E+01    1.1051008E+03   -5.7995722E+01    1.1133437E+03
   -2.09   400.000    3.994E+00    9.5375840E+02    3.5757088E+01    4.2696725E+01    9.5375844E+02   -4.2696733E+01    9.6069808E+02
   -2.08   400.000    3.990E+00    8.8250855E+02    2.4746662E+01    3.0964410E+01    8.8250862E+02   -3.0964418E+01    8.8872637E+02
   -2.07   400.000    3.985E+00    8.8524635E+02    1.5811848E+01    2.1828828E+01    8.8524647E+02   -2.1828837E+01    8.9126345E+02
   -2.06   400.000    3.979E+00    9.6186214E+02    8.2114645E+00    1.4530640E+01    9.6186232E+02   -1.4530650E+01    9.6818149E+02
   -2.05   400.000    3.972E+00    1.1181196E+03    1.3154418E+00    8.4618662E+00    1.1181199E+03   -8.4618794E+00    1.1252663E+03
   -2.04   400.000    3.962E+00    1.3659059E+03   -5.4437936E+00    3.1179878E+00    1.3659062E+03   -3.1180045E+00    1.3744680E+03
   -2.03   400.000    3.949E+00    1.7238028E+03   -1.2613745E+01   -1.9414371E+00    1.7238032E+03    1.9414158E+00    1.7344756E+03
   -2.02   400.000    3.932E+00    2.2179023E+03   -2.0759864E+01   -7.1258431E+00    2.2179029E+03    7.1258157E+00    2.2315369E+03
   -2.01   400.000    3.910E+00    2.8827284E+03   -3.0499814E+01   -1.2841819E+01    2.8827292E+03    1.2841784E+01    2.9003872E+03
   -2.00   400.000    3.881E+00    3.7620236E+03   -4.2532911E+01   -1.9516686E+01    3.7620247E+03    1.9516641E+01    3.7850409E+03
   -1.99   400.000    3.843E+00    4.9089983E+03   -5.7661122E+01   -2.7616280E+01    4.9089997E+03    2.7616223E+01    4.9390445E+03
   -1.98   400.000    3.794E+00    6.3854376E+03   -7.6794324E+01   -3.7653549E+01    6.3854393E+03    3.7653480E+01    6.4245801E+03
   -1.97   400.000    3.731E+00    8.2588684E+03   -1.0092791E+02   -5.0181808E+01    8.2588707E+03    5.0181725E+01    8.3096168E+03
   -1.96   400.000    3.652E+00    1.0596938E+04   -1.3107657E+02   -6.5763849E+01    1.0596941E+04    6.5763752E+01    1.0662254E+04
   -1.95   400.000    3.554E+00    1.3458471E+04   -1.6814750E+02   -8.4907768E+01    1.3458475E+04    8.4907664E+01    1.3541714E+04
   -1.94   400.000    3.434E+00    1.6881601E+04   -2.1274514E+02   -1.0796614E+02    1.6881605E+04    1.0796604E+02    1.6986384E+04
   -1.93   400.000    3.292E+00    2.0870995E+04   -2.6492391E+02   -1.3501107E+02    2.0871000E+04    1.3501098E+02    2.1000913E+04
   -1.92   400.000    3.125E+00    2.5388030E+04   -3.2394385E+02   -1.6572236E+02    2.5388036E+04    1.6572232E+02    2.5546258E+04
   -1.91   400.000    2.937E+00    3.0348764E+04   -3.8811919E+02   -1.9934508E+02    3.0348771E+04    1.9934512E+02    3.0537545E+04
   -1.90   400.000    2.728E+00    3.5633337E+04   -4.5484693E+02   -2.3476093E+02    3.5633345E+04    2.3476110E+02    3.5853431E+04
   -1.89   400.000    2.503E+00    4.1106784E+04   -5.2083853E+02   -2.7066003E+02    4.1106792E+04    2.7066037E+02    4.1356971E+04
   -1.88   400.000    2.267E+00    4.6646639E+04   -5.8248259E+02   -3.0572591E+02    4.6646648E+04    3.0572647E+02    4.6923404E+04
   -1.87   400.000    2.025E+00    5.2170069E+04   -6.3622247E+02   -3.3872960E+02    5.2170078E+04    3.3873041E+02    5.2467570E+04
   -1.86   400.000    1.781E+00    5.7654214E+04   -6.7890348E+02   -3.6851883E+02    5.7654222E+04    3.6851990E+02    5.7964607E+04
   -1.85   400.000    1.540E+00    6.3147327E+04   -7.0816261E+02   -3.9402756E+02    6.3147335E+04    3.9402886E+02    6.3461470E+04
   -1.84   400.000    1.306E+00    6.8772149E+04   -7.2293493E+02   -4.1446529E+02    6.8772157E+04    4.1446678E+02    6.9080626E+04
   -1.83   400.000    1.081E+00    7.4724183E+04   -7.2396061E+02   -4.2968516E+02    7.4724191E+04    4.2968674E+02    7.5018466E+04
   -1.82   400.000    8.677E-01    8.1265834E+04   -7.1396838E+02   -4.4049887E+02    8.1265842E+04    4.4050047E+02    8.1539311E+04
   -1.81   400.000    6.680E-01    8.8714671E+04   -6.9725399E+02   -4.4865462E+02    8.8714680E+04    4.4865613E+02    8.8963279E+04
   -1.80   400.000    4.822E-01    9.7423065E+04   -6.7870334E+02   -4.5640670E+02    9.7423075E+04    4.5640802E+02    9.7645372E+04
   -1.79   400.000    3.105E-01    1.0774828E+05   -6.6265993E+02   -4.6589241E+02    1.0774829E+05    4.6589343E+02    1.0794506E+05
   -1.78   400.000    1.522E-01    1.2001571E+05   -6.5211814E+02   -4.7864126E+02    1.2001572E+05    4.7864187E+02    1.2018919E+05
   -1.77   400.000    5.892E-03    1.3448064E+05   -6.4851606E+02   -4.9542288E+02    1.3448066E+05    4.9542298E+02    1.3463375E+05
   -1.76   400.000   -1.299E-01    1.5129460E+05   -6.5209367E+02   -5.1643101E+02    1.5129461E+05    5.1643050E+02    1.5143028E+05
   -1.75   400.000   -2.572E-01    1.7048077E+05   -6.6255492E+02   -5.4164274E+02    1.7048079E+05    5.4164154E+02    1.7060170E+05
   -1.74   400.000   -3.779E-01    1.9192361E+05   -6.7968673E+02   -5.7113235E+02    1.9192363E+05    5.7113046E+02    1.9203219E+05
   -1.73   400.000   -4.938E-01    2.1537925E+05   -7.0363546E+02   -6.0514636E+02    2.1537928E+05    6.0514380E+02    2.1547776E+05
   -1.72   400.000   -6.066E-01    2.4051613E+05   -7.3470278E+02   -6.4384643E+02    2.4051615E+05    6.4384329E+02    2.4060700E+05
   -1.71   400.000   -7.178E-01    2.6699096E+05   -7.7273711E+02   -6.8677245E+02    2.6699098E+05    6.8676884E+02    2.6707694E+05
   -1.70   400.000   -8.285E-01    2.9455126E+05   -8.1635729E+02   -7.3219832E+02    2.9455128E+05    7.3219438E+02    2.9463543E+05
   -1.69   400.000   -9.395E-01    3.2313387E+05   -8.6225930E+02   -7.7657339E+02    3.2313389E+05    7.7656926E+02    3.2321957E+05
   -1.68   400.000   -1.052E+00    3.5291622E+05   -9.0474693E+02   -8.1416241E+02    3.5291623E+05    8.1415827E+02    3.5300681E+05
   -1.67   400.000   -1.165E+00    3.8428789E+05   -9.3553391E+02   -8.3692553E+02    3.8428789E+05    8.3692162E+02    3.8438650E+05
   -1.66   400.000   -1.281E+00    4.1774318E+05   -9.4392594E+02   -8.3473786E+02    4.1774319E+05    8.3473450E+02    4.1785238E+05
   -1.65   400.000   -1.399E+00    4.5372665E+05   -9.1766620E+02   -7.9620302E+02    4.5372666E+05    7.9620064E+02    4.5384812E+05
   -1.64   400.000   -1.521E+00    4.9247479E+05   -8.4473533E+02   -7.1030933E+02    4.9247480E+05    7.1030845E+02    4.9260922E+05
   -1.63   400.000   -1.645E+00    5.3389298E+05   -7.1592866E+02   -5.6873101E+02    5.3389299E+05    5.6873224E+02    5.3404019E+05
   -1.62   400.000   -1.773E+00    5.7750449E+05   -5.2723448E+02   -3.6784307E+02    5.7750450E+05    3.6784701E+02    5.7766389E+05
   -1.61   400.000   -1.905E+00    6.2250402E+05   -2.8073298E+02   -1.0928811E+02    6.2250403E+05    1.0929531E+02    6.2267547E+05
   -1.60   400.000   -2.040E+00    6.6791991E+05    1.6266606E+01    2.0105007E+02    6.6791992E+05   -2.0103921E+02    6.6810471E+05
   -1.59   400.000   -2.179E+00    7.1283772E+05    3.5233383E+02    5.5408555E+02    7.1283775E+05   -5.5407082E+02    7.1303950E+05
   -1.58   400.000   -2.320E+00    7.5660489E+05    7.1104973E+02    9.3641472E+02    7.5660492E+05   -9.3639616E+02    7.5683029E+05
   -1.57   400.000   -2.464E+00    7.9895687E+05    1.0676538E+03    1.3266565E+03    7.9895691E+05   -1.3266344E+03    7.9921591E+05
   -1.56   400.000   -2.611E+00    8.4005720E+05    1.3857365E+03    1.6918716E+03    8.4005725E+05   -1.6918464E+03    8.4036338E+05
   -1.55   400.000   -2.760E+00    8.8046441E+05    1.6182306E+03    1.9883159E+03    8.8046446E+05   -1.9882883E+03    8.8083455E+05
   -1.54   400.000   -2.911E+00    9.2101367E+05    1.7156152E+03    2.1693649E+03    9.2101373E+05   -2.1693358E+03    9.2146748E+05
   -1.53   400.000   -3.065E+00    9.6258919E+05    1.6403658E+03    2.1995341E+03    9.6258926E+05   -2.1995040E+03    9.6314843E+05
   -1.52   400.000   -3.222E+00    1.0058166E+06    1.3822317E+03    2.0691144E+03    1.0058166E+06   -2.0690842E+03    1.0065035E+06
   -1.51   400.000   -3.382E+00    1.0507841E+06    9.6616827E+02    1.8013078E+03    1.0507842E+06   -1.8012780E+03    1.0516193E+06
   -1.50   400.000   -3.546E+00    1.0969167E+06    4.4606050E+02    1.4452389E+03    1.0969168E+06   -1.4452102E+03    1.0979160E+06
   -1.49   400.000   -3.714E+00    1.1430456E+06   -1.1575783E+02    1.0552988E+03    1.1430457E+06   -1.0552718E+03    1.1442168E+06
   -1.48   400.000   -3.886E+00    1.1876123E+06   -6.7353674E+02    6.6697857E+02    1.1876124E+06   -6.6695394E+02    1.1889529E+06
   -1.47   400.000   -4.062E+00    1.2289154E+06   -1.2131689E+03    2.8394463E+02    1.2289155E+06   -2.8392310E+02    1.2304126E+06
   -1.46   400.000   -4.243E+00    1.2653499E+06   -1.7480389E+03   -1.1487936E+02    1.2653499E+06    1.1489707E+02    1.2669831E+06
   -1.45   400.000   -4.427E+00    1.2956359E+06   -2.2987194E+03   -5.5251799E+02    1.2956359E+06    5.5253127E+02    1.2973821E+06
   -1.44   400.000   -4.614E+00    1.3190342E+06   -2.8699800E+03   -1.0303399E+03    1.3190343E+06    1.0303483E+03    1.3208739E+06
   -1.43   400.000   -4.804E+00    1.3355158E+06   -3.4399206E+03   -1.5191498E+03    1.3355158E+06    1.5191531E+03    1.3374366E+06
   -1.42   400.000   -4.996E+00    1.3458230E+06   -3.9673436E+03   -1.9704795E+03    1.3458230E+06    1.9704776E+03    1.3478199E+06
   -1.41   400.000   -5.189E+00    1.3513683E+06   -4.4110413E+03   -2.3401155E+03    1.3513683E+06    2.3401086E+03    1.3534392E+06
   -1.40   400.000   -5.383E+00    1.3539594E+06   -4.7484358E+03   -2.6094205E+03    1.3539594E+06    2.6094092E+03    1.3560984E+06
   -1.39   400.000   -5.579E+00    1.3554088E+06   -4.9852162E+03   -2.7947233E+03    1.3554088E+06    2.7947083E+03    1.3575993E+06
   -1.38   400.000   -5.775E+00    1.3571358E+06   -5.1557639E+03   -2.9442559E+03    1.3571358E+06    2.9442382E+03    1.3593473E+06
   -1.37   400.000   -5.973E+00    1.3598824E+06   -5.3170946E+03   -3.1264768E+03    1.3598824E+06    3.1264577E+03    1.3620731E+06
   -1.36   400.000   -6.173E+00    1.3636287E+06   -5.5362368E+03   -3.4120550E+03    1.3636287E+06    3.4120356E+03    1.3657529E+06
   -1.35   400.000   -6.376E+00    1.3677460E+06   -5.8697724E+03   -3.8507531E+03    1.3677460E+06    3.8507345E+03    1.3697650E+06
   -1.34   400.000   -6.583E+00    1.3713574E+06   -6.3394941E+03   -4.4483120E+03    1.3713574E+06    4.4482949E+03    1.3732486E+06
   -1.33   400.000   -6.793E+00    1.3737992E+06   -6.9157017E+03   -5.1539227E+03    1.3737993E+06    5.1539077E+03    1.3755610E+06
   -1.32   400.000   -7.008E+00    1.3750158E+06   -7.5206022E+03   -5.8685468E+03    1.3750158E+06    5.8685340E+03    1.3766678E+06
   -1.31   400.000   -7.228E+00    1.3757193E+06   -8.0540682E+03   -6.4744192E+03    1.3757194E+06    6.4744085E+03    1.3772990E+06
   -1.30   400.000   -7.452E+00    1.3772440E+06   -8.4288483E+03   -6.8721883E+03    1.3772441E+06    6.8721797E+03    1.3788007E+06
   -1.29   400.000   -7.680E+00    1.3811658E+06   -8.5951846E+03   -7.0061718E+03    1.3811658E+06    7.0061654E+03    1.3827549E+06
   -1.28   400.000   -7.913E+00    1.3888686E+06   -8.5424914E+03   -6.8663065E+03    1.3888687E+06    6.8663024E+03    1.3905449E+06
   -1.27   400.000   -8.149E+00    1.4012398E+06   -8.2814455E+03   -6.4707279E+03    1.4012398E+06    6.4707267E+03    1.4030506E+06
   -1.26   400.000   -8.388E+00    1.4185967E+06   -7.8207070E+03   -5.8430358E+03    1.4185968E+06    5.8430381E+03    1.4205745E+06
   -1.25   400.000   -8.628E+00    1.4408389E+06   -7.1521392E+03   -4.9972316E+03    1.4408389E+06    4.9972380E+03    1.4429938E+06
   -1.24   400.000   -8.871E+00    1.4677190E+06   -6.2503903E+03   -3.9350366E+03    1.4677191E+06    3.9350481E+03    1.4700345E+06
   -1.23   400.000   -9.113E+00    1.4990773E+06   -5.0844890E+03   -2.6526622E+03    1.4990773E+06    2.6526795E+03    1.5015092E+06
   -1.22   400.000   -9.357E+00    1.5349115E+06   -3.6349412E+03   -1.1513699E+03    1.5349115E+06    1.1513936E+03    1.5373951E+06
   -1.21   400.000   -9.601E+00    1.5752901E+06   -1.9091327E+03    5.5297920E+02    1.5752901E+06   -5.5294891E+02    1.5777522E+06
   -1.20   400.000   -9.845E+00    1.6202602E+06    5.0946545E+01    2.4246437E+03    1.6202603E+06   -2.4246071E+03    1.6226340E+06
   -1.19   400.000   -1.009E+01    1.6699256E+06    2.1714412E+03    4.4086077E+03    1.6699257E+06   -4.4085657E+03    1.6721628E+06
   -1.18   400.000   -1.034E+01    1.7246944E+06    4.3575848E+03    6.4360959E+03    1.7246945E+06   -6.4360500E+03    1.7267730E+06
   -1.17   400.000   -1.058E+01    1.7854660E+06    6.5062802E+03    8.4311099E+03    1.7854661E+06   -8.4310618E+03    1.7873909E+06
   -1.16   400.000   -1.083E+01    1.8534635E+06    8.5136480E+03    1.0313534E+04    1.8534635E+06   -1.0313485E+04    1.8552634E+06
   -1.15   400.000   -1.109E+01    1.9296200E+06    1.0276304E+04    1.1998186E+04    1.9296201E+06   -1.1998139E+04    1.9313420E+06
   -1.14   400.000   -1.135E+01    2.0137449E+06    1.1692549E+04    1.3395307E+04    2.0137450E+06   -1.3395263E+04    2.0154477E+06
   -1.13   400.000   -1.161E+01    2.1038790E+06    1.2672126E+04    1.4420048E+04    2.1038790E+06   -1.4420007E+04    2.1056269E+06
   -1.12   400.000   -1.188E+01    2.1961825E+06    1.3156419E+04    1.5012121E+04    2.1961825E+06   -1.5012084E+04    2.1980382E+06
   -1.11   400.000   -1.215E+01    2.2854414E+06    1.3139225E+04    1.5155591E+04    2.2854414E+06   -1.5155557E+04    2.2874577E+06
   -1.10   400.000   -1.243E+01    2.3660055E+06    1.2671949E+04    1.4883202E+04    2.3660055E+06   -1.4883170E+04    2.3682168E+06
   -1.09   400.000   -1.272E+01    2.4328339E+06    1.1843503E+04    1.4256624E+04    2.4328339E+06   -1.4256594E+04    2.4352470E+06
   -1.08   400.000   -1.301E+01    2.4823366E+06    1.0741076E+04    1.3330047E+04    2.4823366E+06   -1.3330018E+04    2.4849256E+06
   -1.07   400.000   -1.331E+01    2.5128364E+06    9.4120949E+03    1.2118037E+04    2.5128364E+06   -1.2118009E+04    2.5155423E+06
   -1.06   400.000   -1.360E+01    2.5246325E+06    7.8497176E+03    1.0588936E+04    2.5246324E+06   -1.0588909E+04    2.5273717E+06
   -1.05   400.000   -1.390E+01    2.5197839E+06    6.0113610E+03    8.6904325E+03    2.5197839E+06   -8.6904066E+03    2.5224629E+06
   -1.04   400.000   -1.420E+01    2.5017755E+06    3.8602015E+03    6.3939248E+03    2.5017754E+06   -6.3939011E+03    2.5043092E+06
   -1.03   400.000   -1.450E+01    2.4751857E+06    1.4071106E+03    3.7337023E+03    2.4751856E+06   -3.7336819E+03    2.4775122E+06
   -1.02   400.000   -1.481E+01    2.4453653E+06   -1.2669085E+03    8.2249361E+02    2.4453653E+06   -8.2247739E+02    2.4474547E+06
   -1.01   400.000   -1.511E+01    2.4180428E+06   -4.0153957E+03   -2.1608977E+03    2.4180427E+06    2.1609090E+03    2.4198972E+06
   -1.00   400.000   -1.541E+01    2.3987658E+06   -6.6550618E+03   -5.0057998E+03    2.3987657E+06    5.0058058E+03    2.4004150E+06
   -0.99   400.000   -1.571E+01    2.3921828E+06   -9.0102153E+03   -7.5164904E+03    2.3921828E+06    7.5164913E+03    2.3936765E+06
   -0.98   400.000   -1.601E+01    2.4012905E+06   -1.0961299E+04   -9.5605573E+03    2.4012905E+06    9.5605538E+03    2.4026912E+06
   -0.97   400.000   -1.631E+01    2.4268546E+06   -1.2480635E+04   -1.1103240E+04    2.4268546E+06    1.1103233E+04    2.4282320E+06
   -0.96   400.000   -1.662E+01    2.4672040E+06   -1.3635781E+04   -1.2209375E+04    2.4672040E+06    1.2209366E+04    2.4686304E+06
   -0.95   400.000   -1.692E+01    2.5184793E+06   -1.4548843E+04   -1.3002003E+04    2.5184792E+06    1.3001992E+04    2.5200261E+06
   -0.94   400.000   -1.724E+01    2.5752646E+06   -1.5321656E+04   -1.3587744E+04    2.5752646E+06    1.3587733E+04    2.5769985E+06
   -0.93   400.000   -1.756E+01    2.6314129E+06   -1.5960988E+04   -1.3982822E+04    2.6314129E+06    1.3982812E+04    2.6333910E+06
   -0.92   400.000   -1.788E+01    2.6808765E+06   -1.6344209E+04   -1.4079505E+04    2.6808765E+06    1.4079497E+04    2.6831412E+06
   -0.91   400.000   -1.822E+01    2.7184385E+06   -1.6245592E+04   -1.3672250E+04    2.7184384E+06    1.3672244E+04    2.7210118E+06
   -0.90   400.000   -1.855E+01    2.7403309E+06   -1.5411722E+04   -1.2531277E+04    2.7403309E+06    1.2531274E+04    2.7432114E+06
   -0.89   400.000   -1.890E+01    2.7447527E+06   -1.3653899E+04   -1.0491350E+04    2.7447527E+06    1.0491347E+04    2.7479153E+06
   -0.88   400.000   -1.924E+01    2.7322396E+06   -1.0923922E+04   -7.5228789E+03    2.7322396E+06    7.5228768E+03    2.7356407E+06
   -0.87   400.000   -1.959E+01    2.7057665E+06   -7.3503859E+03   -3.7639496E+03    2.7057665E+06    3.7639469E+03    2.7093529E+06
   -0.86   400.000   -1.994E+01    2.6704584E+06   -3.2266794E+03    4.9409214E+02    2.6704584E+06   -4.9409614E+02    2.6741791E+06
   -0.85   400.000   -2.030E+01    2.6328890E+06    1.0450393E+03    4.8621850E+03    2.6328890E+06   -4.8621905E+03    2.6367061E+06
   -0.84   400.000   -2.066E+01    2.6000831E+06    5.0383014E+03    8.9344748E+03    2.6000831E+06   -8.9344815E+03    2.6039793E+06
   -0.83   400.000   -2.102E+01    2.5784422E+06    8.3916135E+03    1.2371929E+04    2.5784422E+06   -1.2371937E+04    2.5824225E+06
   -0.82   400.000   -2.138E+01    2.5728430E+06    1.0877294E+04    1.4965308E+04    2.5728431E+06   -1.4965314E+04    2.5769311E+06
   -0.81   400.000   -2.174E+01    2.5861138E+06    1.2431091E+04    1.6660839E+04    2.5861138E+06   -1.6660844E+04    2.5903436E+06
   -0.80   400.000   -2.211E+01    2.6189701E+06    1.3136372E+04    1.7543500E+04    2.6189701E+06   -1.7543504E+04    2.6233773E+06
   -0.79   400.000   -2.249E+01    2.6703407E+06    1.3170802E+04    1.7785286E+04    2.6703408E+06   -1.7785288E+04    2.6749553E+06
   -0.78   400.000   -2.287E+01    2.7378976E+06    1.2735960E+04    1.7577221E+04    2.7378977E+06   -1.7577222E+04    2.7427390E+06
   -0.77   400.000   -2.325E+01    2.8185871E+06    1.1997560E+04    1.7071338E+04    2.8185872E+06   -1.7071338E+04    2.8236609E+06
   -0.76   400.000   -2.364E+01    2.9090354E+06    1.1060059E+04    1.6356101E+04    2.9090354E+06   -1.6356103E+04    2.9143315E+06
   -0.75   400.000   -2.404E+01    3.0058244E+06    9.9816244E+03    1.5472181E+04    3.0058244E+06   -1.5472185E+04    3.0113150E+06
   -0.74   400.000   -2.444E+01    3.1057134E+06    8.8118994E+03    1.4452009E+04    3.1057135E+06   -1.4452017E+04    3.1113536E+06
   -0.73   400.000   -2.486E+01    3.2058470E+06    7.6214554E+03    1.3352038E+04    3.2058471E+06   -1.3352049E+04    3.2115777E+06
   -0.72   400.000   -2.528E+01    3.3038775E+06    6.4990839E+03    1.2253064E+04    3.3038776E+06   -1.2253079E+04    3.3096316E+06
   -0.71   400.000   -2.570E+01    3.3979013E+06    5.5173178E+03    1.1228235E+04    3.3979013E+06   -1.1228254E+04    3.4036122E+06
   -0.70   400.000   -2.614E+01    3.4862371E+06    4.6899358E+03    1.0302155E+04    3.4862371E+06   -1.0302177E+04    3.4918494E+06
   -0.69   400.000   -2.658E+01    3.5672604E+06    3.9502954E+03    9.4293124E+03    3.5672605E+06   -9.4293357E+03    3.5727395E+06
   -0.68   400.000   -2.702E+01    3.6395165E+06    3.1646955E+03    8.5048984E+03    3.6395166E+06   -8.5049233E+03    3.6448568E+06
   -0.67   400.000   -2.748E+01    3.7021029E+06    2.1750394E+03    7.4016496E+03    3.7021029E+06   -7.4016762E+03    3.7073295E+06
   -0.66   400.000   -2.793E+01    3.7550362E+06    8.5434049E+02    6.0174034E+03    3.7550362E+06   -6.0174318E+03    3.7601993E+06
   -0.65   400.000   -2.839E+01    3.7992761E+06   -8.4173307E+02    4.3193692E+03    3.7992762E+06   -4.3193998E+03    3.8044373E+06
   -0.64   400.000   -2.886E+01    3.8363221E+06   -2.8423544E+03    2.3730836E+03    3.8363221E+06   -2.3731168E+03    3.8415375E+06
   -0.63   400.000   -2.932E+01    3.8676103E+06   -4.9625576E+03    3.4342335E+02    3.8676103E+06   -3.4345940E+02    3.8729163E+06
   -0.62   400.000   -2.979E+01    3.8940435E+06   -6.9458474E+03   -1.5405800E+03    3.8940435E+06    1.5405409E+03    3.8994487E+06
   -0.61   400.000   -3.026E+01    3.9158363E+06   -8.5389540E+03   -3.0502490E+03    3.9158362E+06    3.0502069E+03    3.9213249E+06
   -0.60   400.000   -3.073E+01    3.9326434E+06   -9.5686189E+03   -4.0253544E+03    3.9326433E+06    4.0253094E+03    3.9381866E+06
   -0.59   400.000   -3.120E+01    3.9438402E+06   -9.9832328E+03   -4.4127515E+03    3.9438401E+06    4.4127039E+03    3.9494106E+06
   -0.58   400.000   -3.166E+01    3.9488622E+06   -9.8392186E+03   -4.2567035E+03    3.9488622E+06    4.2566540E+03    3.9544447E+06
   -0.57   400.000   -3.213E+01    3.9475490E+06   -9.2453997E+03   -3.6515011E+03    3.9475489E+06    3.6514506E+03    3.9531428E+06
   -0.56   400.000   -3.260E+01    3.9404088E+06   -8.3038055E+03   -2.6901939E+03    3.9404088E+06    2.6901435E+03    3.9460224E+06
   -0.55   400.000   -3.307E+01    3.9286982E+06   -7.0811442E+03   -1.4402223E+03    3.9286982E+06    1.4401734E+03    3.9343391E+06
   -0.54   400.000   -3.353E+01    3.9142707E+06   -5.6158545E+03    4.9677860E+01    3.9142707E+06   -4.9723890E+01    3.9199362E+06
   -0.53   400.000   -3.400E+01    3.8992704E+06   -3.9393427E+03    1.7312352E+03    3.8992704E+06   -1.7312768E+03    3.9049410E+06
   -0.52   400.000   -3.446E+01    3.8857919E+06   -2.0892491E+03    3.5478317E+03    3.8857919E+06   -3.5478677E+03    3.8914290E+06
   -0.51   400.000   -3.493E+01    3.8755742E+06   -1.1085253E+02    5.4386099E+03    3.8755742E+06   -5.4386394E+03    3.8811236E+06
   -0.50   400.000   -3.539E+01    3.8697269E+06    1.9440128E+03    7.3457214E+03    3.8697269E+06   -7.3457442E+03    3.8751286E+06
   -0.49   400.000   -3.586E+01    3.8685010E+06    4.0142895E+03    9.2167550E+03    3.8685011E+06   -9.2167714E+03    3.8737035E+06
   -0.48   400.000   -3.632E+01    3.8711941E+06    6.0260088E+03    1.1002463E+04    3.8711941E+06   -1.1002474E+04    3.8761706E+06
   -0.47   400.000   -3.678E+01    3.8763105E+06    7.8918192E+03    1.2652617E+04    3.8763106E+06   -1.2652624E+04    3.8810714E+06
   -0.46   400.000   -3.725E+01    3.8820155E+06    9.5128020E+03    1.4110325E+04    3.8820156E+06   -1.4110330E+04    3.8866131E+06
   -0.45   400.000   -3.771E+01    3.8867477E+06    1.0779285E+04    1.5304565E+04    3.8867478E+06   -1.5304569E+04    3.8912731E+06
   -0.44   400.000   -3.818E+01    3.8897134E+06    1.1572144E+04    1.6145103E+04    3.8897135E+06   -1.6145108E+04    3.8942864E+06
   -0.43   400.000   -3.864E+01    3.8909990E+06    1.1773054E+04    1.6529234E+04    3.8909990E+06   -1.6529241E+04    3.8957552E+06
   -0.42   400.000   -3.911E+01    3.8912388E+06    1.1292095E+04    1.6368493E+04    3.8912388E+06   -1.6368503E+04    3.8963152E+06
   -0.41   400.000   -3.957E+01    3.8910348E+06    1.0108691E+04    1.5630752E+04    3.8910348E+06   -1.5630765E+04    3.8965569E+06
   -0.40   400.000   -4.002E+01    3.8904628E+06    8.3030371E+03    1.4374535E+04    3.8904628E+06   -1.4374552E+04    3.8965343E+06
   -0.39   400.000   -4.048E+01    3.8889399E+06    6.0477461E+03    1.2744700E+04    3.8889399E+06   -1.2744720E+04    3.8956368E+06
   -0.38   400.000   -4.093E+01    3.8855329E+06    3.5486347E+03    1.0917126E+04    3.8855328E+06   -1.0917149E+04    3.8929013E+06
   -0.37   400.000   -4.137E+01    3.8795762E+06    9.6222007E+02    9.0183767E+03    3.8795761E+06   -9.0184017E+03    3.8876323E+06
   -0.36   400.000   -4.181E+01    3.8713423E+06   -1.6569361E+03    7.0729562E+03    3.8713422E+06   -7.0729822E+03    3.8800721E+06
   -0.35   400.000   -4.224E+01    3.8624804E+06   -4.3431608E+03    5.0158217E+03    3.8624803E+06   -5.0158479E+03    3.8718393E+06
   -0.34   400.000   -4.267E+01    3.8559929E+06   -7.1545587E+03    2.7596098E+03    3.8559928E+06   -2.7596350E+03    3.8659070E+06
   -0.33   400.000   -4.309E+01    3.8556580E+06   -1.0104982E+04    2.6895023E+02    3.8556580E+06   -2.6897355E+02    3.8660319E+06
   -0.32   400.000   -4.351E+01    3.8650514E+06   -1.3132707E+04   -2.4003432E+03    3.8650514E+06    2.4003227E+03    3.8757837E+06
   -0.31   400.000   -4.392E+01    3.8865560E+06   -1.6108042E+04   -5.1049476E+03    3.8865560E+06    5.1049308E+03    3.8975591E+06
   -0.30   400.000   -4.432E+01    3.9207663E+06   -1.8854760E+04   -7.6398217E+03    3.9207663E+06    7.6398095E+03    3.9319812E+06
   -0.29   400.000   -4.473E+01    3.9664287E+06   -2.1161172E+04   -9.7619204E+03    3.9664287E+06    9.7619138E+03    3.9778280E+06
   -0.28   400.000   -4.513E+01    4.0207387E+06   -2.2778150E+04   -1.1204821E+04    4.0207387E+06    1.1204821E+04    4.0323120E+06
   -0.27   400.000   -4.553E+01    4.0797053E+06   -2.3424938E+04   -1.1698515E+04    4.0797053E+06    1.1698522E+04    4.0914318E+06
   -0.26   400.000   -4.594E+01    4.1384607E+06   -2.2830783E+04   -1.1015755E+04    4.1384608E+06    1.1015768E+04    4.1502758E+06
   -0.25   400.000   -4.634E+01    4.1916395E+06   -2.0821964E+04   -9.0501582E+03    4.1916396E+06    9.0501781E+03    4.2034114E+06
   -0.24   400.000   -4.674E+01    4.2340388E+06   -1.7427939E+04   -5.9006471E+03    4.2340389E+06    5.9006727E+03    4.2455662E+06
   -0.23   400.000   -4.714E+01    4.2615809E+06   -1.2951576E+04   -1.9149077E+03    4.2615810E+06    1.9149377E+03    4.2726177E+06
   -0.22   400.000   -4.755E+01    4.2722666E+06   -7.9515572E+03    2.3480077E+03    4.2722667E+06   -2.3479750E+03    4.2825663E+06
   -0.21   400.000   -4.795E+01    4.2666461E+06   -3.1246096E+03    6.2388667E+03    4.2666462E+06   -6.2388331E+03    4.2760097E+06
   -0.20   400.000   -4.836E+01    4.2475444E+06    8.7201569E+02    9.1821050E+03    4.2475445E+06   -9.1820722E+03    4.2558546E+06
   -0.19   400.000   -4.877E+01    4.2191966E+06    3.5859803E+03    1.0818504E+04    4.2191967E+06   -1.0818473E+04    4.2264292E+06
   -0.18   400.000   -4.919E+01    4.1861904E+06    4.8607083E+03    1.1074968E+04    4.1861905E+06   -1.1074940E+04    4.1924047E+06
   -0.17   400.000   -4.960E+01    4.1525146E+06    4.8300957E+03    1.0146865E+04    4.1525146E+06   -1.0146841E+04    4.1578314E+06
   -0.16   400.000   -5.002E+01    4.1207976E+06    3.8383468E+03    8.4151420E+03    4.1207976E+06   -8.4151211E+03    4.1253744E+06
   -0.15   400.000   -5.044E+01    4.0917702E+06    2.3251075E+03    6.3350778E+03    4.0917703E+06   -6.3350597E+03    4.0957802E+06
   -0.14   400.000   -5.086E+01    4.0640920E+06    7.1204608E+02    4.3285353E+03    4.0640920E+06   -4.3285192E+03    4.0677085E+06
   -0.13   400.000   -5.128E+01    4.0347190E+06   -6.8105433E+02    2.7046837E+03    4.0347190E+06   -2.7046693E+03    4.0381047E+06
   -0.12   400.000   -5.172E+01    3.9998487E+06   -1.6704486E+03    1.6283576E+03    3.9998487E+06   -1.6283448E+03    4.0031475E+06
   -0.11   400.000   -5.215E+01    3.9562375E+06   -2.1918872E+03    1.1375748E+03    3.9562375E+06   -1.1375637E+03    3.9595670E+06
   -0.10   400.000   -5.260E+01    3.9024875E+06   -2.2587686E+03    1.1863720E+03    3.9024875E+06   -1.1863629E+03    3.9059327E+06
   -0.09   400.000   -5.305E+01    3.8398424E+06   -1.9285137E+03    1.6810953E+03    3.8398424E+06   -1.6810882E+03    3.8434520E+06
   -0.08   400.000   -5.352E+01    3.7721607E+06   -1.2904753E+03    2.4976190E+03    3.7721607E+06   -2.4976141E+03    3.7759488E+06
   -0.07   400.000   -5.399E+01    3.7050587E+06   -4.6206660E+02    3.4918607E+03    3.7050586E+06   -3.4918576E+03    3.7090126E+06
   -0.06   400.000   -5.448E+01    3.6445792E+06    4.2627580E+02    4.5202778E+03    3.6445792E+06   -4.5202765E+03    3.6486732E+06
   -0.05   400.000   -5.499E+01    3.5959227E+06    1.2598963E+03    5.4700037E+03    3.5959227E+06   -5.4700039E+03    3.6001328E+06
   -0.04   400.000   -5.551E+01    3.5626405E+06    1.9660817E+03    6.2812250E+03    3.5626405E+06   -6.2812267E+03    3.5669556E+06
   -0.03   400.000   -5.604E+01    3.5463816E+06    2.5190447E+03    6.9452273E+03    3.5463816E+06   -6.9452309E+03    3.5508077E+06
   -0.02   400.000   -5.660E+01    3.5470184E+06    2.9184764E+03    7.4763704E+03    3.5470184E+06   -7.4763762E+03    3.5515763E+06
   -0.01   400.000   -5.717E+01    3.5629096E+06    3.1498853E+03    7.8687258E+03    3.5629096E+06   -7.8687343E+03    3.5676285E+06
    0.00   400.000   -5.775E+01    3.5911628E+06    3.1423318E+03    8.0530724E+03    3.5911629E+06   -8.0530837E+03    3.5960736E+06
    0.01   400.000   -5.835E+01    3.6279105E+06    2.7460121E+03    7.8751231E+03    3.6279105E+06   -7.8751371E+03    3.6330396E+06
    0.02   400.000   -5.896E+01    3.6686679E+06    1.7545090E+03    7.1185476E+03    3.6686679E+06   -7.1185633E+03    3.6740320E+06
    0.03   400.000   -5.958E+01    3.7087710E+06   -2.2421543E+01    5.5790160E+03    3.7087711E+06   -5.5790319E+03    3.7143725E+06
    0.04   400.000   -6.020E+01    3.7438066E+06   -2.6686479E+03    3.1574413E+03    3.7438066E+06   -3.1574557E+03    3.7496327E+06
    0.05   400.000   -6.084E+01    3.7699672E+06   -6.1118404E+03   -8.5085438E+01    3.7699672E+06    8.5074098E+01    3.7759940E+06
    0.06   400.000   -6.148E+01    3.7843542E+06   -1.0151255E+04   -3.9498527E+03    3.7843542E+06    3.9498458E+03    3.7905556E+06
    0.07   400.000   -6.212E+01    3.7852813E+06   -1.4546983E+04   -8.1877073E+03    3.7852813E+06    8.1877057E+03    3.7916406E+06
    0.08   400.000   -6.277E+01    3.7725384E+06   -1.9112042E+04   -1.2594420E+04    3.7725384E+06    1.2594423E+04    3.7790560E+06
    0.09   400.000   -6.341E+01    3.7474750E+06   -2.3749663E+04   -1.7056013E+04    3.7474750E+06    1.7056021E+04    3.7541686E+06
    0.10   400.000   -6.406E+01    3.7127906E+06   -2.8420058E+04   -2.1525446E+04    3.7127906E+06    2.1525457E+04    3.7196852E+06
    0.11   400.000   -6.471E+01    3.6720794E+06   -3.3072715E+04   -2.5962752E+04    3.6720794E+06    2.5962765E+04    3.6791893E+06
    0.12   400.000   -6.536E+01    3.6293010E+06   -3.7603720E+04   -3.0294661E+04    3.6293010E+06    3.0294675E+04    3.6366101E+06
    0.13   400.000   -6.601E+01    3.5883131E+06   -4.1875201E+04   -3.4428775E+04    3.5883131E+06    3.4428788E+04    3.5957595E+06
    0.14   400.000   -6.666E+01    3.5524602E+06   -4.5783628E+04   -3.8309906E+04    3.5524602E+06    3.8309917E+04    3.5599339E+06
    0.15   400.000   -6.732E+01    3.5241740E+06   -4.9326774E+04   -4.1972568E+04    3.5241740E+06    4.1972577E+04    3.5315282E+06
    0.16   400.000   -6.799E+01    3.5046552E+06   -5.2622774E+04   -4.5549060E+04    3.5046552E+06    4.5549065E+04    3.5117289E+06
    0.17   400.000   -6.866E+01    3.4938408E+06   -5.5868724E+04   -4.9224959E+04    3.4938409E+06    4.9224962E+04    3.5004846E+06
    0.18   400.000   -6.935E+01    3.4908072E+06   -5.9260780E+04   -5.3164231E+04    3.4908073E+06    5.3164231E+04    3.4969039E+06
    0.19   400.000   -7.005E+01    3.4945035E+06   -6.2914387E+04   -5.7438895E+04    3.4945036E+06    5.7438893E+04    3.4999790E+06
    0.20   400.000   -7.076E+01    3.5044359E+06   -6.6820775E+04   -6.1994762E+04    3.5044360E+06    6.1994758E+04    3.5092620E+06
    0.21   400.000   -7.148E+01    3.5208816E+06   -7.0859197E+04   -6.6669837E+04    3.5208817E+06    6.6669832E+04    3.5250711E+06
    0.22   400.000   -7.220E+01    3.5444876E+06   -7.4860919E+04   -7.1261163E+04    3.5444877E+06    7.1261159E+04    3.5480874E+06
    0.23   400.000   -7.294E+01    3.5755223E+06   -7.8699709E+04   -7.5616045E+04    3.5755224E+06    7.5616044E+04    3.5786060E+06
    0.24   400.000   -7.368E+01    3.6132401E+06   -8.2370188E+04   -7.9710113E+04    3.6132402E+06    7.9710117E+04    3.6159002E+06
    0.25   400.000   -7.443E+01    3.6556538E+06   -8.6013677E+04   -8.3672302E+04    3.6556539E+06    8.3672311E+04    3.6579953E+06
    0.26   400.000   -7.518E+01    3.6997049E+06   -8.9866571E+04   -8.7731919E+04    3.6997050E+06    8.7731936E+04    3.7018397E+06
    0.27   400.000   -7.594E+01    3.7416745E+06   -9.4140068E+04   -9.2096849E+04    3.7416746E+06    9.2096875E+04    3.7437178E+06
    0.28   400.000   -7.670E+01    3.7777179E+06   -9.8879391E+04   -9.6811392E+04    3.7777180E+06    9.6811428E+04    3.7797860E+06
    0.29   400.000   -7.747E+01    3.8044478E+06   -1.0387139E+05   -1.0166298E+05    3.8044479E+06    1.0166302E+05    3.8066563E+06
    0.30   400.000   -7.824E+01    3.8194363E+06   -1.0865369E+05   -1.0619104E+05    3.8194364E+06    1.0619109E+05    3.8218991E+06
    0.31   400.000   -7.901E+01    3.8214891E+06   -1.1263207E+05   -1.0980453E+05    3.8214893E+06    1.0980459E+05    3.8243168E+06
    0.32   400.000   -7.980E+01    3.8106632E+06   -1.1526275E+05   -1.1196469E+05    3.8106633E+06    1.1196475E+05    3.8139614E+06
    0.33   400.000   -8.058E+01    3.7881640E+06   -1.1623019E+05   -1.1236318E+05    3.7881642E+06    1.1236324E+05    3.7920312E+06
    0.34   400.000   -8.137E+01    3.7562930E+06   -1.1555399E+05   -1.1103002E+05    3.7562932E+06    1.1103008E+05    3.7608171E+06
    0.35   400.000   -8.215E+01    3.7184775E+06   -1.1358587E+05   -1.0833213E+05    3.7184777E+06    1.0833218E+05    3.7237315E+06
    0.36   400.000   -8.294E+01    3.6792410E+06   -1.1089821E+05   -1.0486449E+05    3.6792412E+06    1.0486454E+05    3.6852749E+06
    0.37   400.000   -8.373E+01    3.6438973E+06   -1.0810828E+05   -1.0127673E+05    3.6438975E+06    1.0127677E+05    3.6507290E+06
    0.38   400.000   -8.451E+01    3.6178664E+06   -1.0570511E+05   -9.8100142E+04    3.6178667E+06    9.8100176E+04    3.6254716E+06
    0.39   400.000   -8.529E+01    3.6057374E+06   -1.0393863E+05   -9.5633545E+04    3.6057376E+06    9.5633571E+04    3.6140427E+06
    0.40   400.000   -8.608E+01    3.6103940E+06   -1.0279831E+05   -9.3915250E+04    3.6103942E+06    9.3915267E+04    3.6192773E+06
    0.41   400.000   -8.687E+01    3.6325298E+06   -1.0206839E+05   -9.2770464E+04    3.6325299E+06    9.2770474E+04    3.6418279E+06
    0.42   400.000   -8.766E+01    3.6706963E+06   -1.0142115E+05   -9.1897622E+04    3.6706964E+06    9.1897625E+04    3.6802200E+06
    0.43   400.000   -8.846E+01    3.7217947E+06   -1.0050930E+05   -9.0956608E+04    3.7217948E+06    9.0956604E+04    3.7313475E+06
    0.44   400.000   -8.928E+01    3.7817790E+06   -9.9038513E+04   -8.9640560E+04    3.7817791E+06    8.9640550E+04    3.7911771E+06
    0.45   400.000   -9.010E+01    3.8463535E+06   -9.6821560E+04   -8.7732431E+04    3.8463536E+06    8.7732415E+04    3.8554427E+06
    0.46   400.000   -9.093E+01    3.9115349E+06   -9.3822271E+04   -8.5153892E+04    3.9115350E+06    8.5153871E+04    3.9202033E+06
    0.47   400.000   -9.177E+01    3.9740205E+06   -9.0189096E+04   -8.2005465E+04    3.9740205E+06    8.2005440E+04    3.9822042E+06
    0.48   400.000   -9.262E+01    4.0313116E+06   -8.6260173E+04   -7.8579465E+04    4.0313117E+06    7.8579438E+04    4.0389924E+06
    0.49   400.000   -9.348E+01    4.0815711E+06   -8.2511756E+04   -7.5316799E+04    4.0815712E+06    7.5316771E+04    4.0887661E+06
    0.50   400.000   -9.435E+01    4.1232784E+06   -7.9437738E+04   -7.2693352E+04    4.1232784E+06    7.2693324E+04    4.1300228E+06
    0.51   400.000   -9.524E+01    4.1548629E+06   -7.7388612E+04   -7.1061364E+04    4.1548629E+06    7.1061338E+04    4.1611902E+06
    0.52   400.000   -9.614E+01    4.1745367E+06   -7.6432999E+04   -7.0506904E+04    4.1745368E+06    7.0506881E+04    4.1804629E+06
    0.53   400.000   -9.705E+01    4.1804496E+06   -7.6303186E+04   -7.0785671E+04    4.1804497E+06    7.0785652E+04    4.1859672E+06
    0.54   400.000   -9.797E+01    4.1711028E+06   -7.6450098E+04   -7.1366453E+04    4.1711029E+06    7.1366437E+04    4.1761865E+06
    0.55   400.000   -9.891E+01    4.1458177E+06   -7.6190881E+04   -7.1570520E+04    4.1458178E+06    7.1570508E+04    4.1504382E+06
    0.56   400.000   -9.985E+01    4.1050552E+06   -7.4904390E+04   -7.0765514E+04    4.1050553E+06    7.0765504E+04    4.1091942E+06
    0.57   400.000   -1.008E+02    4.0504994E+06   -7.2216161E+04   -6.8555037E+04    4.0504995E+06    6.8555030E+04    4.0541606E+06
    0.58   400.000   -1.018E+02    3.9849339E+06   -6.8112303E+04   -6.4900209E+04    3.9849339E+06    6.4900204E+04    3.9881460E+06
    0.59   400.000   -1.027E+02    3.9119618E+06   -6.2939563E+04   -6.0126709E+04    3.9119619E+06    6.0126707E+04    3.9147747E+06
    0.60   400.000   -1.037E+02    3.8355773E+06   -5.7291564E+04   -5.4815122E+04    3.8355774E+06    5.4815122E+04    3.8380538E+06
    0.61   400.000   -1.046E+02    3.7595783E+06   -5.1832471E+04   -4.9625474E+04    3.7595783E+06    4.9625477E+04    3.7617853E+06
    0.62   400.000   -1.056E+02    3.6868922E+06   -4.7135718E+04   -4.5134461E+04    3.6868922E+06    4.5134468E+04    3.6888935E+06
    0.63   400.000   -1.066E+02    3.6189927E+06   -4.3594825E+04   -4.1743604E+04    3.6189928E+06    4.1743614E+04    3.6208440E+06
    0.64   400.000   -1.075E+02    3.5556158E+06   -4.1409098E+04   -3.9662161E+04    3.5556159E+06    3.9662175E+04    3.5573628E+06
    0.65   400.000   -1.084E+02    3.4948954E+06   -4.0602789E+04   -3.8924075E+04    3.4948955E+06    3.8924091E+04    3.4965742E+06
    0.66   400.000   -1.094E+02    3.4338980E+06   -4.1036872E+04   -3.9398488E+04    3.4338981E+06    3.9398506E+04    3.4355364E+06
    0.67   400.000   -1.103E+02    3.3694106E+06   -4.2408216E+04   -4.0788630E+04    3.3694107E+06    4.0788648E+04    3.3710303E+06
    0.68   400.000   -1.112E+02    3.2987641E+06   -4.4260548E+04   -4.2643278E+04    3.2987642E+06    4.2643295E+04    3.3003815E+06
    0.69   400.000   -1.121E+02    3.2204590E+06   -4.6030224E+04   -4.4403329E+04    3.2204592E+06    4.4403342E+04    3.2220860E+06
    0.70   400.000   -1.129E+02    3.1344156E+06   -4.7129015E+04   -4.5485267E+04    3.1344158E+06    4.5485276E+04    3.1360595E+06
    0.71   400.000   -1.138E+02    3.0418064E+06   -4.7048641E+04   -4.5385964E+04    3.0418065E+06    4.5385968E+04    3.0434692E+06
    0.72   400.000   -1.146E+02    2.9445908E+06   -4.5462722E+04   -4.3784395E+04    2.9445910E+06    4.3784394E+04    2.9462693E+06
    0.73   400.000   -1.154E+02    2.8449791E+06   -4.2296912E+04   -4.0611093E+04    2.8449793E+06    4.0611089E+04    2.8466651E+06
    0.74   400.000   -1.162E+02    2.7450290E+06   -3.7742209E+04   -3.6060604E+04    2.7450291E+06    3.6060596E+04    2.7467107E+06
    0.75   400.000   -1.169E+02    2.6464568E+06   -3.2205139E+04   -3.0541051E+04    2.6464570E+06    3.0541041E+04    2.6481210E+06
    0.76   400.000   -1.177E+02    2.5506234E+06   -2.6211703E+04   -2.4578025E+04    2.5506235E+06    2.4578013E+04    2.5522572E+06
    0.77   400.000   -1.184E+02    2.4586134E+06   -2.0293652E+04   -1.8701439E+04    2.4586135E+06    1.8701427E+04    2.4602057E+06
    0.78   400.000   -1.190E+02    2.3713530E+06   -1.4884333E+04   -1.3342368E+04    2.3713531E+06    1.3342357E+04    2.3728951E+06
    0.79   400.000   -1.197E+02    2.2897295E+06   -1.0246545E+04   -8.7619696E+03    2.2897296E+06    8.7619594E+03    2.2912142E+06
    0.80   400.000   -1.203E+02    2.2146791E+06   -6.4496486E+03   -5.0293321E+03    2.2146792E+06    5.0293236E+03    2.2160995E+06
    0.81   400.000   -1.209E+02    2.1472198E+06   -3.4020855E+03   -2.0540525E+03    2.1472198E+06    2.0540461E+03    2.1485679E+06
    0.82   400.000   -1.214E+02    2.0884293E+06   -9.2765048E+02    3.3825414E+02    2.0884294E+06   -3.3825812E+02    2.0896953E+06
    0.83   400.000   -1.220E+02    2.0393949E+06    1.1419967E+03    2.3147731E+03    2.0393949E+06   -2.3147744E+03    2.0405677E+06
    0.84   400.000   -1.225E+02    2.0011579E+06    2.8910444E+03    3.9604945E+03    2.0011580E+06   -3.9604927E+03    2.0022275E+06
    0.85   400.000   -1.230E+02    1.9746691E+06    4.2850372E+03    5.2443171E+03    1.9746692E+06   -5.2443122E+03    1.9756285E+06
    0.86   400.000   -1.235E+02    1.9607569E+06    5.1899669E+03    6.0377322E+03    1.9607570E+06   -6.0377241E+03    1.9616048E+06
    0.87   400.000   -1.239E+02    1.9601061E+06    5.4396070E+03    6.1809782E+03    1.9601062E+06   -6.1809671E+03    1.9608476E+06
    0.88   400.000   -1.244E+02    1.9732096E+06    4.9264129E+03    5.5725787E+03    1.9732097E+06   -5.5725650E+03    1.9738559E+06
    0.89   400.000   -1.248E+02    2.0002180E+06    3.6765170E+03    4.2433413E+03    2.0002181E+06   -4.2433256E+03    2.0007849E+06
    0.90   400.000   -1.253E+02    2.0406193E+06    1.8725558E+03    2.3787879E+03    2.0406194E+06   -2.3787708E+03    2.0411256E+06
    0.91   400.000   -1.257E+02    2.0927849E+06   -1.8671350E+02    2.7887344E+02    2.0927849E+06   -2.7885582E+02    2.0932505E+06
    0.92   400.000   -1.262E+02    2.1535691E+06   -2.1698434E+03   -1.7251061E+03    2.1535691E+06    1.7251234E+03    2.1540138E+06
    0.93   400.000   -1.266E+02    2.2182370E+06   -3.8025800E+03   -3.3600729E+03    2.2182370E+06    3.3600892E+03    2.2186795E+06
    0.94   400.000   -1.271E+02    2.2809178E+06   -4.9317172E+03   -4.4748469E+03    2.2809178E+06    4.4748617E+03    2.2813747E+06
    0.95   400.000   -1.275E+02    2.3355414E+06   -5.5463758E+03   -5.0613913E+03    2.3355415E+06    5.0614043E+03    2.3360264E+06
    0.96   400.000   -1.280E+02    2.3769559E+06   -5.7568812E+03   -5.2336766E+03    2.3769559E+06    5.2336879E+03    2.3774792E+06
    0.97   400.000   -1.285E+02    2.4018149E+06   -5.7431044E+03   -5.1758815E+03    2.4018150E+06    5.1758917E+03    2.4023822E+06
    0.98   400.000   -1.289E+02    2.4089530E+06   -5.6912188E+03   -5.0788160E+03    2.4089530E+06    5.0788260E+03    2.4095654E+06
    0.99   400.000   -1.294E+02    2.3992170E+06   -5.7417948E+03   -5.0875323E+03    2.3992170E+06    5.0875429E+03    2.3998713E+06
    1.00   400.000   -1.299E+02    2.3749179E+06   -5.9684728E+03   -5.2794783E+03    2.3749180E+06    5.2794904E+03    2.3756070E+06
    1.01   400.000   -1.304E+02    2.3391078E+06   -6.3900556E+03   -5.6761158E+03    2.3391079E+06    5.6761298E+03    2.3398218E+06
    1.02   400.000   -1.308E+02    2.2948623E+06   -6.9986007E+03   -6.2706180E+03    2.2948624E+06    6.2706342E+03    2.2955903E+06
    1.03   400.000   -1.313E+02    2.2447528E+06   -7.7805125E+03   -7.0486838E+03    2.2447528E+06    7.0487020E+03    2.2454847E+06
    1.04   400.000   -1.318E+02    2.1906871E+06   -8.7211811E+03   -7.9930956E+03    2.1906872E+06    7.9931155E+03    2.1914152E+06
    1.05   400.000   -1.323E+02    2.1341697E+06   -9.8004756E+03   -9.0793959E+03    2.1341698E+06    9.0794170E+03    2.1348909E+06
    1.06   400.000   -1.328E+02    2.0767936E+06   -1.0991266E+04   -1.0274827E+04    2.0767936E+06    1.0274849E+04    2.0775101E+06
    1.07   400.000   -1.333E+02    2.0206329E+06   -1.2266467E+04   -1.1545894E+04    2.0206329E+06    1.1545917E+04    2.0213535E+06
    1.08   400.000   -1.338E+02    1.9682973E+06   -1.3610133E+04   -1.2869922E+04    1.9682974E+06    1.2869946E+04    1.9690376E+06
    1.09   400.000   -1.343E+02    1.9226417E+06   -1.5021834E+04   -1.4239769E+04    1.9226418E+06    1.4239793E+04    1.9234238E+06
    1.10   400.000   -1.348E+02    1.8862933E+06   -1.6506109E+04   -1.5653572E+04    1.8862933E+06    1.5653596E+04    1.8871458E+06
    1.11   400.000   -1.354E+02    1.8611756E+06   -1.8050411E+04   -1.7093078E+04    1.8611756E+06    1.7093103E+04    1.8621330E+06
    1.12   400.000   -1.359E+02    1.8481546E+06   -1.9606587E+04   -1.8505677E+04    1.8481546E+06    1.8505701E+04    1.8492555E+06
    1.13   400.000   -1.365E+02    1.8468877E+06   -2.1090799E+04   -1.9804961E+04    1.8468877E+06    1.9804985E+04    1.8481736E+06
    1.14   400.000   -1.371E+02    1.8559344E+06   -2.2404648E+04   -2.0892426E+04    1.8559344E+06    2.0892449E+04    1.8574466E+06
    1.15   400.000   -1.377E+02    1.8731211E+06   -2.3468235E+04   -2.1690819E+04    1.8731210E+06    2.1690841E+04    1.8748984E+06
    1.16   400.000   -1.383E+02    1.8960473E+06   -2.4252677E+04   -2.2176585E+04    1.8960473E+06    2.2176605E+04    1.8981233E+06
    1.17   400.000   -1.390E+02    1.9225382E+06   -2.4801086E+04   -2.2400528E+04    1.9225382E+06    2.2400546E+04    1.9249387E+06
    1.18   400.000   -1.396E+02    1.9508686E+06   -2.5226723E+04   -2.2485652E+04    1.9508686E+06    2.2485668E+04    1.9536096E+06
    1.19   400.000   -1.403E+02    1.9797317E+06   -2.5679572E+04   -2.2593509E+04    1.9797316E+06    2.2593524E+04    1.9828177E+06
    1.20   400.000   -1.410E+02    2.0080883E+06   -2.6287123E+04   -2.2864392E+04    2.0080882E+06    2.2864407E+04    2.0115110E+06
    1.21   400.000   -1.417E+02    2.0350779E+06   -2.7096099E+04   -2.3357522E+04    2.0350779E+06    2.3357537E+04    2.0388164E+06
    1.22   400.000   -1.425E+02    2.0600529E+06   -2.8048973E+04   -2.4025059E+04    2.0600528E+06    2.4025077E+04    2.0640767E+06
    1.23   400.000   -1.432E+02    2.0826346E+06   -2.9010755E+04   -2.4736631E+04    2.0826345E+06    2.4736654E+04    2.0869086E+06
    1.24   400.000   -1.440E+02    2.1026402E+06   -2.9831655E+04   -2.5341634E+04    2.1026401E+06    2.5341662E+04    2.1071301E+06
    1.25   400.000   -1.448E+02    2.1198499E+06   -3.0413786E+04   -2.5738138E+04    2.1198498E+06    2.5738174E+04    2.1245254E+06
    1.26   400.000   -1.456E+02    2.1337661E+06   -3.0753718E+04   -2.5919131E+04    2.1337660E+06    2.5919174E+04    2.1386006E+06
    1.27   400.000   -1.465E+02    2.1435821E+06   -3.0946695E+04   -2.5979983E+04    2.1435820E+06    2.5980032E+04    2.1485487E+06
    1.28   400.000   -1.474E+02    2.1484528E+06   -3.1151377E+04   -2.6084816E+04    2.1484527E+06    2.6084871E+04    2.1535192E+06
    1.29   400.000   -1.483E+02    2.1479384E+06   -3.1525361E+04   -2.6401868E+04    2.1479383E+06    2.6401927E+04    2.1530618E+06
    1.30   400.000   -1.493E+02    2.1423390E+06   -3.2154108E+04   -2.7030521E+04    2.1423389E+06    2.7030582E+04    2.1474625E+06
    1.31   400.000   -1.503E+02    2.1326810E+06   -3.3004493E+04   -2.7951041E+04    2.1326809E+06    2.7951102E+04    2.1377343E+06
    1.32   400.000   -1.514E+02    2.1203257E+06   -3.3928640E+04   -2.9023092E+04    2.1203256E+06    2.9023150E+04    2.1252311E+06
    1.33   400.000   -1.525E+02    2.1064006E+06   -3.4720633E+04   -3.0037444E+04    2.1064005E+06    3.0037500E+04    2.1110837E+06
    1.34   400.000   -1.536E+02    2.0913512E+06   -3.5200131E+04   -3.0797623E+04    2.0913511E+06    3.0797675E+04    2.0957536E+06
    1.35   400.000   -1.548E+02    2.0748323E+06   -3.5282644E+04   -3.1192875E+04    2.0748322E+06    3.1192923E+04    2.0789220E+06
    1.36   400.000   -1.561E+02    2.0559801E+06   -3.5005448E+04   -3.1230646E+04    2.0559799E+06    3.1230690E+04    2.0597547E+06
    1.37   400.000   -1.574E+02    2.0339402E+06   -3.4502145E+04   -3.1018751E+04    2.0339401E+06    3.1018792E+04    2.0374235E+06
    1.38   400.000   -1.588E+02    2.0084493E+06   -3.3942593E+04   -3.0710892E+04    2.0084492E+06    3.0710930E+04    2.0116809E+06
    1.39   400.000   -1.602E+02    1.9802671E+06   -3.3468160E+04   -3.0443716E+04    1.9802670E+06    3.0443751E+04    1.9832914E+06
    1.40   400.000   -1.616E+02    1.9513265E+06   -3.3150890E+04   -3.0294058E+04    1.9513263E+06    3.0294091E+04    1.9541832E+06
    1.41   400.000   -1.631E+02    1.9245577E+06   -3.2989950E+04   -3.0271074E+04    1.9245575E+06    3.0271105E+04    1.9272764E+06
    1.42   400.000   -1.645E+02    1.9034338E+06   -3.2937873E+04   -3.0337676E+04    1.9034337E+06    3.0337705E+04    1.9060339E+06
    1.43   400.000   -1.660E+02    1.8913529E+06   -3.2936079E+04   -3.0442435E+04    1.8913527E+06    3.0442462E+04    1.8938464E+06
    1.44   400.000   -1.674E+02    1.8910052E+06   -3.2940925E+04   -3.0544107E+04    1.8910050E+06    3.0544130E+04    1.8934018E+06
    1.45   400.000   -1.688E+02    1.9038743E+06   -3.2932777E+04   -3.0621279E+04    1.9038741E+06    3.0621299E+04    1.9061856E+06
    1.46   400.000   -1.702E+02    1.9299916E+06   -3.2910818E+04   -3.0669106E+04    1.9299915E+06    3.0669123E+04    1.9322332E+06
    1.47   400.000   -1.716E+02    1.9680033E+06   -3.2879890E+04   -3.0688468E+04    1.9680031E+06    3.0688481E+04    1.9701945E+06
    1.48   400.000   -1.729E+02    2.0155137E+06   -3.2833982E+04   -3.0671446E+04    2.0155135E+06    3.0671453E+04    2.0176760E+06
    1.49   400.000   -1.741E+02    2.0695744E+06   -3.2739125E+04   -3.0585559E+04    2.0695743E+06    3.0585561E+04    2.0717278E+06
    1.50   400.000   -1.753E+02    2.1271398E+06   -3.2520731E+04   -3.0361713E+04    2.1271396E+06    3.0361709E+04    2.1292986E+06
    1.51   400.000   -1.764E+02    2.1853456E+06   -3.2064416E+04   -2.9894854E+04    2.1853454E+06    2.9894845E+04    2.1875150E+06
    1.52   400.000   -1.774E+02    2.2415696E+06   -3.1237241E+04   -2.9064241E+04    2.2415694E+06    2.9064228E+04    2.2437424E+06
    1.53   400.000   -1.784E+02    2.2933514E+06   -2.9925625E+04   -2.7769562E+04    2.2933512E+06    2.7769546E+04    2.2955073E+06
    1.54   400.000   -1.793E+02    2.3383393E+06   -2.8075668E+04   -2.5968686E+04    2.3383391E+06    2.5968666E+04    2.3404461E+06
    1.55   400.000   -1.802E+02    2.3744237E+06   -2.5720271E+04   -2.3701833E+04    2.3744235E+06    2.3701812E+04    2.3764420E+06
    1.56   400.000   -1.811E+02    2.4000887E+06   -2.2983497E+04   -2.1093566E+04    2.4000885E+06    2.1093544E+04    2.4019785E+06
    1.57   400.000   -1.819E+02    2.4148278E+06   -2.0059731E+04   -1.8331238E+04    2.4148277E+06    1.8331217E+04    2.4165562E+06
    1.58   400.000   -1.827E+02    2.4193709E+06   -1.7172394E+04   -1.5625237E+04    2.4193708E+06    1.5625217E+04    2.4209179E+06
    1.59   400.000   -1.835E+02    2.4155604E+06   -1.4525811E+04   -1.3163956E+04    2.4155603E+06    1.3163939E+04    2.4169221E+06
    1.60   400.000   -1.842E+02    2.4059376E+06   -1.2268791E+04   -1.1080680E+04    2.4059374E+06    1.1080667E+04    2.4071256E+06
    1.61   400.000   -1.850E+02    2.3932626E+06   -1.0482153E+04   -9.4433984E+03    2.3932625E+06    9.4433893E+03    2.3943013E+06
    1.62   400.000   -1.857E+02    2.3801711E+06   -9.1880211E+03   -8.2649391E+03    2.3801711E+06    8.2649351E+03    2.3810941E+06
    1.63   400.000   -1.864E+02    2.3690114E+06   -8.3694626E+03   -7.5222909E+03    2.3690113E+06    7.5222922E+03    2.3698585E+06
    1.64   400.000   -1.871E+02    2.3617674E+06   -7.9914243E+03   -7.1766035E+03    2.3617673E+06    7.1766099E+03    2.3625822E+06
    1.65   400.000   -1.878E+02    2.3599546E+06   -8.0194162E+03   -7.1908398E+03    2.3599545E+06    7.1908508E+03    2.3607831E+06
    1.66   400.000   -1.886E+02    2.3644599E+06   -8.4322818E+03   -7.5417450E+03    2.3644599E+06    7.5417597E+03    2.3653504E+06
    1.67   400.000   -1.893E+02    2.3754074E+06   -9.2223947E+03   -8.2197015E+03    2.3754074E+06    8.2197190E+03    2.3764101E+06
    1.68   400.000   -1.900E+02    2.3921677E+06   -1.0378732E+04   -9.2121024E+03    2.3921677E+06    9.2121220E+03    2.3933343E+06
    1.69   400.000   -1.907E+02    2.4135828E+06   -1.1857384E+04   -1.0474953E+04    2.4135828E+06    1.0474974E+04    2.4149653E+06
    1.70   400.000   -1.914E+02    2.4383672E+06   -1.3555060E+04   -1.1908301E+04    2.4383672E+06    1.1908322E+04    2.4400139E+06
    1.71   400.000   -1.921E+02    2.4655442E+06   -1.5305532E+04   -1.3355139E+04    2.4655442E+06    1.3355160E+04    2.4674946E+06
    1.72   400.000   -1.928E+02    2.4947365E+06   -1.6909376E+04   -1.4633417E+04    2.4947365E+06    1.4633437E+04    2.4970125E+06
    1.73   400.000   -1.935E+02    2.5261725E+06   -1.8186983E+04   -1.5589826E+04    2.5261725E+06    1.5589843E+04    2.5287697E+06
    1.74   400.000   -1.942E+02    2.5603965E+06   -1.9028318E+04   -1.6147452E+04    2.5603965E+06    1.6147467E+04    2.5632774E+06
    1.75   400.000   -1.949E+02    2.5978095E+06   -1.9414135E+04   -1.6321326E+04    2.5978095E+06    1.6321337E+04    2.6009023E+06
    1.76   400.000   -1.956E+02    2.6382320E+06   -1.9400439E+04   -1.6194796E+04    2.6382320E+06    1.6194802E+04    2.6414376E+06
    1.77   400.000   -1.963E+02    2.6806502E+06   -1.9077571E+04   -1.5871114E+04    2.6806502E+06    1.5871115E+04    2.6838567E+06
    1.78   400.000   -1.970E+02    2.7232233E+06   -1.8525299E+04   -1.5425091E+04    2.7232233E+06    1.5425087E+04    2.7263235E+06
    1.79   400.000   -1.977E+02    2.7635668E+06   -1.7783803E+04   -1.4876233E+04    2.7635668E+06    1.4876223E+04    2.7664744E+06
    1.80   400.000   -1.984E+02    2.7992886E+06   -1.6851970E+04   -1.4193318E+04    2.7992886E+06    1.4193303E+04    2.8019472E+06
    1.81   400.000   -1.991E+02    2.8286940E+06   -1.5714243E+04   -1.3328404E+04    2.8286940E+06    1.3328385E+04    2.8310799E+06
    1.82   400.000   -1.998E+02    2.8514899E+06   -1.4387793E+04   -1.2269303E+04    2.8514899E+06    1.2269281E+04    2.8536084E+06
    1.83   400.000   -2.005E+02    2.8692439E+06   -1.2973137E+04   -1.1092755E+04    2.8692439E+06    1.1092731E+04    2.8711242E+06
    1.84   400.000   -2.012E+02    2.8853807E+06   -1.1683882E+04   -9.9945972E+03    2.8853807E+06    9.9945720E+03    2.8870700E+06
    1.85   400.000   -2.019E+02    2.9046410E+06   -1.0830793E+04   -9.2731696E+03    2.9046410E+06    9.2731439E+03    2.9061987E+06
    1.86   400.000   -2.026E+02    2.9321281E+06   -1.0749772E+04   -9.2563474E+03    2.9321281E+06    9.2563217E+03    2.9336215E+06
    1.87   400.000   -2.033E+02    2.9722146E+06   -1.1692142E+04   -1.0191025E+04    2.9722146E+06    1.0190999E+04    2.9737157E+06
    1.88   400.000   -2.040E+02    3.0276026E+06   -1.3722340E+04   -1.2140328E+04    3.0276027E+06    1.2140301E+04    3.0291847E+06
    1.89   400.000   -2.048E+02    3.0987503E+06   -1.6672470E+04   -1.4938036E+04    3.0987504E+06    1.4938008E+04    3.1004848E+06
    1.90   400.000   -2.055E+02    3.1837688E+06   -2.0179555E+04   -1.8225936E+04    3.1837688E+06    1.8225907E+04    3.1857224E+06
    1.91   400.000   -2.062E+02    3.2787872E+06   -2.3793371E+04   -2.1561747E+04    3.2787872E+06    2.1561714E+04    3.2810188E+06
    1.92   400.000   -2.070E+02    3.3786909E+06   -2.7109988E+04   -2.4552525E+04    3.3786909E+06    2.4552489E+04    3.3812484E+06
    1.93   400.000   -2.077E+02    3.4780477E+06   -2.9873659E+04   -2.6956188E+04    3.4780478E+06    2.6956148E+04    3.4809652E+06
    1.94   400.000   -2.085E+02    3.5719744E+06   -3.2006019E+04   -2.8710313E+04    3.5719744E+06    2.8710269E+04    3.5752701E+06
    1.95   400.000   -2.093E+02    3.6567114E+06   -3.3563091E+04   -2.9888916E+04    3.6567114E+06    2.9888867E+04    3.6603856E+06
    1.96   400.000   -2.101E+02    3.7298137E+06   -3.4663127E+04   -3.0630025E+04    3.7298137E+06    3.0629973E+04    3.7338468E+06
    1.97   400.000   -2.109E+02    3.7900708E+06   -3.5438052E+04   -3.1086220E+04    3.7900708E+06    3.1086166E+04    3.7944226E+06
    1.98   400.000   -2.117E+02    3.8373971E+06   -3.6028370E+04   -3.1417302E+04    3.8373971E+06    3.1417246E+04    3.8420081E+06
    1.99   400.000   -2.125E+02    3.8728907E+06   -3.6595843E+04   -3.1799336E+04    3.8728906E+06    3.1799280E+04    3.8776871E+06
    2.00   400.000   -2.134E+02    3.8990725E+06   -3.7313747E+04   -3.2410819E+04    3.8990724E+06    3.2410762E+04    3.9039754E+06
    2.01   400.000   -2.142E+02    3.9201335E+06   -3.8323546E+04   -3.3386647E+04    3.9201334E+06    3.3386591E+04    3.9250703E+06
    2.02   400.000   -2.150E+02    3.9419257E+06   -3.9687020E+04   -3.4770902E+04    3.9419256E+06    3.4770847E+04    3.9468417E+06
    2.03   400.000   -2.159E+02    3.9714986E+06   -4.1371464E+04   -3.6506778E+04    3.9714985E+06    3.6506724E+04    3.9763632E+06
    2.04   400.000   -2.167E+02    4.0161588E+06   -4.3276194E+04   -3.8470366E+04    4.0161587E+06    3.8470313E+04    4.0209645E+06
    2.05   400.000   -2.175E+02    4.0822602E+06   -4.5275054E+04   -4.0519751E+04    4.0822602E+06    4.0519700E+04    4.0870155E+06
    2.06   400.000   -2.183E+02    4.1740932E+06   -4.7243483E+04   -4.2524676E+04    4.1740931E+06    4.2524625E+04    4.1788120E+06
    2.07   400.000   -2.191E+02    4.2932280E+06   -4.9058690E+04   -4.4363949E+04    4.2932279E+06    4.4363900E+04    4.2979227E+06
    2.08   400.000   -2.200E+02    4.4384615E+06   -5.0586814E+04   -4.5906001E+04    4.4384614E+06    4.5905953E+04    4.4431423E+06
    2.09   400.000   -2.208E+02    4.6062220E+06   -5.1684504E+04   -4.7003797E+04    4.6062220E+06    4.7003750E+04    4.6109027E+06
    2.10   400.000   -2.216E+02    4.7911324E+06   -5.2234888E+04   -4.7528016E+04    4.7911324E+06    4.7527972E+04    4.7958393E+06
    2.11   400.000   -2.224E+02    4.9865255E+06   -5.2209324E+04   -4.7431631E+04    4.9865255E+06    4.7431589E+04    4.9913032E+06
    2.12   400.000   -2.232E+02    5.1849400E+06   -5.1715017E+04   -4.6804493E+04    5.1849400E+06    4.6804454E+04    5.1898505E+06
    2.13   400.000   -2.241E+02    5.3787495E+06   -5.0985243E+04   -4.5871178E+04    5.3787495E+06    4.5871141E+04    5.3838636E+06
    2.14   400.000   -2.249E+02    5.5610004E+06   -5.0304591E+04   -4.4920955E+04    5.5610003E+06    4.4920922E+04    5.5663840E+06
    2.15   400.000   -2.257E+02    5.7263298E+06   -4.9907127E+04   -4.4205944E+04    5.7263298E+06    4.4205913E+04    5.7320309E+06
    2.16   400.000   -2.265E+02    5.8716833E+06   -4.9900515E+04   -4.3860546E+04    5.8716833E+06    4.3860517E+04    5.8777233E+06
    2.17   400.000   -2.273E+02    5.9965494E+06   -5.0247084E+04   -4.3875006E+04    5.9965493E+06    4.3874979E+04    6.0029214E+06
    2.18   400.000   -2.281E+02    6.1025941E+06   -5.0800934E+04   -4.4125048E+04    6.1025940E+06    4.4125024E+04    6.1092699E+06
    2.19   400.000   -2.289E+02    6.1928353E+06   -5.1381173E+04   -4.4440443E+04    6.1928353E+06    4.4440421E+04    6.1997760E+06
    2.20   400.000   -2.297E+02    6.2707073E+06   -5.1853744E+04   -4.4686292E+04    6.2707073E+06    4.4686273E+04    6.2778747E+06
    2.21   400.000   -2.304E+02    6.3394079E+06   -5.2190228E+04   -4.4824809E+04    6.3394078E+06    4.4824792E+04    6.3467733E+06
    2.22   400.000   -2.312E+02    6.4017560E+06   -5.2475748E+04   -4.4928094E+04    6.4017560E+06    4.4928078E+04    6.4093037E+06
    2.23   400.000   -2.319E+02    6.4605042E+06   -5.2859010E+04   -4.5133192E+04    6.4605041E+06    4.5133176E+04    6.4682299E+06
    2.24   400.000   -2.326E+02    6.5188021E+06   -5.3470063E+04   -4.5563626E+04    6.5188021E+06    4.5563610E+04    6.5267085E+06
    2.25   400.000   -2.333E+02    6.5804298E+06   -5.4352410E+04   -4.6262839E+04    6.5804298E+06    4.6262822E+04    6.5885194E+06
    2.26   400.000   -2.340E+02    6.6495501E+06   -5.5445519E+04   -4.7175193E+04    6.6495501E+06    4.7175175E+04    6.6578204E+06
    2.27   400.000   -2.347E+02    6.7300316E+06   -5.6618442E+04   -4.8176046E+04    6.7300316E+06    4.8176028E+04    6.7384740E+06
    2.28   400.000   -2.354E+02    6.8246456E+06   -5.7724327E+04   -4.9122734E+04    6.8246456E+06    4.9122716E+04    6.8332471E+06
    2.29   400.000   -2.361E+02    6.9344446E+06   -5.8642802E+04   -4.9895585E+04    6.9344446E+06    4.9895568E+04    6.9431918E+06
    2.30   400.000   -2.368E+02    7.0584335E+06   -5.9299067E+04   -5.0418755E+04    7.0584335E+06    5.0418740E+04    7.0673138E+06
    2.31   400.000   -2.375E+02    7.1935145E+06   -5.9671834E+04   -5.0671847E+04    7.1935144E+06    5.0671834E+04    7.2025144E+06
    2.32   400.000   -2.382E+02    7.3347635E+06   -5.9806539E+04   -5.0705753E+04    7.3347635E+06    5.0705741E+04    7.3438643E+06
    2.33   400.000   -2.389E+02    7.4761445E+06   -5.9833277E+04   -5.0659577E+04    7.4761444E+06    5.0659567E+04    7.4853181E+06
    2.34   400.000   -2.396E+02    7.6115617E+06   -5.9967931E+04   -5.0757007E+04    7.6115616E+06    5.0756998E+04    7.6207725E+06
    2.35   400.000   -2.404E+02    7.7358253E+06   -6.0471211E+04   -5.1259743E+04    7.7358251E+06    5.1259735E+04    7.7450366E+06
    2.36   400.000   -2.411E+02    7.8450166E+06   -6.1559911E+04   -5.2376108E+04    7.8450164E+06    5.2376101E+04    7.8542002E+06
    2.37   400.000   -2.418E+02    7.9360527E+06   -6.3293827E+04   -5.4150394E+04    7.9360524E+06    5.4150389E+04    7.9451959E+06
    2.38   400.000   -2.426E+02    8.0057491E+06   -6.5484943E+04   -5.6378267E+04    8.0057489E+06    5.6378263E+04    8.0148556E+06
    2.39   400.000   -2.433E+02    8.0500311E+06   -6.7685319E+04   -5.8600745E+04    8.0500309E+06    5.8600743E+04    8.0591155E+06
    2.40   400.000   -2.441E+02    8.0639488E+06   -6.9296491E+04   -6.0215724E+04    8.0639486E+06    6.0215725E+04    8.0730294E+06
    2.41   400.000   -2.448E+02    8.0428377E+06   -6.9792183E+04   -6.0697835E+04    8.0428375E+06    6.0697838E+04    8.0519318E+06
    2.42   400.000   -2.455E+02    7.9844341E+06   -6.8970495E+04   -5.9845495E+04    7.9844339E+06    5.9845500E+04    7.9935589E+06
    2.43   400.000   -2.463E+02    7.8912049E+06   -6.7106288E+04   -5.7930080E+04    7.8912047E+06    5.7930087E+04    7.9003809E+06
    2.44   400.000   -2.470E+02    7.7718322E+06   -6.4907968E+04   -5.5653820E+04    7.7718321E+06    5.5653828E+04    7.7810862E+06
    2.45   400.000   -2.477E+02    7.6409353E+06   -6.3280192E+04   -5.3916898E+04    7.6409352E+06    5.3916907E+04    7.6502985E+06
    2.46   400.000   -2.485E+02    7.5167401E+06   -6.2990069E+04   -5.3488289E+04    7.5167400E+06    5.3488300E+04    7.5262418E+06
    2.47   400.000   -2.492E+02    7.4172904E+06   -6.4377898E+04   -5.4719111E+04    7.4172904E+06    5.4719124E+04    7.4269492E+06
    2.48   400.000   -2.499E+02    7.3565119E+06   -6.7233192E+04   -5.7418941E+04    7.3565119E+06    5.7418955E+04    7.3663262E+06
    2.49   400.000   -2.505E+02    7.3415440E+06   -7.0885110E+04   -6.0944680E+04    7.3415440E+06    6.0944696E+04    7.3514844E+06
    2.50   400.000   -2.512E+02    7.3721420E+06   -7.4462210E+04   -6.4456742E+04    7.3721420E+06    6.4456760E+04    7.3821475E+06
    2.51   400.000   -2.519E+02    7.4420087E+06   -7.7206655E+04   -6.7227406E+04    7.4420088E+06    6.7227425E+04    7.4519880E+06
    2.52   400.000   -2.526E+02    7.5412573E+06   -7.8720357E+04   -6.8880016E+04    7.5412573E+06    6.8880037E+04    7.5510977E+06
    2.53   400.000   -2.532E+02    7.6591105E+06   -7.9068945E+04   -6.9487579E+04    7.6591105E+06    6.9487601E+04    7.6686919E+06
    2.54   400.000   -2.539E+02    7.7861545E+06   -7.8730950E+04   -6.9520360E+04    7.7861546E+06    6.9520385E+04    7.7953652E+06
    2.55   400.000   -2.546E+02    7.9156972E+06   -7.8419960E+04   -6.9670141E+04    7.9156972E+06    6.9670170E+04    7.9244471E+06
    2.56   400.000   -2.552E+02    8.0440223E+06   -7.8828478E+04   -7.0598038E+04    8.0440223E+06    7.0598071E+04    8.0522528E+06
    2.57   400.000   -2.559E+02    8.1696568E+06   -8.0362620E+04   -7.2673205E+04    8.1696568E+06    7.2673242E+04    8.1773462E+06
    2.58   400.000   -2.566E+02    8.2920698E+06   -8.2956595E+04   -7.5790817E+04    8.2920698E+06    7.5790860E+04    8.2992356E+06
    2.59   400.000   -2.572E+02    8.4103553E+06   -8.6050734E+04   -7.9353525E+04    8.4103554E+06    7.9353574E+04    8.4170526E+06
    2.60   400.000   -2.579E+02    8.5224118E+06   -8.8765249E+04   -8.2448931E+04    8.5224118E+06    8.2448986E+04    8.5287281E+06
    2.61   400.000   -2.585E+02    8.6249586E+06   -9.0216179E+04   -8.4169051E+04    8.6249586E+06    8.4169111E+04    8.6310057E+06
    2.62   400.000   -2.592E+02    8.7143693E+06   -8.9844699E+04   -8.3941900E+04    8.7143693E+06    8.3941965E+04    8.7202721E+06
    2.63   400.000   -2.598E+02    8.7878222E+06   -8.7614688E+04   -8.1729318E+04    8.7878222E+06    8.1729385E+04    8.7937075E+06
    2.64   400.000   -2.604E+02    8.8440056E+06   -8.3995047E+04   -7.8007707E+04    8.8440056E+06    7.8007776E+04    8.8499929E+06
    2.65   400.000   -2.610E+02    8.8828829E+06   -7.9751755E+04   -7.3557887E+04    8.8828829E+06    7.3557954E+04    8.8890767E+06
    2.66   400.000   -2.616E+02    8.9046692E+06   -7.5658080E+04   -6.9174237E+04    8.9046692E+06    6.9174301E+04    8.9111530E+06
    2.67   400.000   -2.622E+02    8.9086756E+06   -7.2235345E+04   -6.5406798E+04    8.9086755E+06    6.5406859E+04    8.9155041E+06
    2.68   400.000   -2.628E+02    8.8926573E+06   -6.9582059E+04   -6.2393427E+04    8.8926572E+06    6.2393483E+04    8.8998459E+06
    2.69   400.000   -2.633E+02    8.8529078E+06   -6.7306248E+04   -5.9793684E+04    8.8529078E+06    5.9793733E+04    8.8604203E+06
    2.70   400.000   -2.638E+02    8.7849830E+06   -6.4575682E+04   -5.6835107E+04    8.7849830E+06    5.6835148E+04    8.7927236E+06
    2.71   400.000   -2.644E+02    8.6848260E+06   -6.0304029E+04   -5.2487907E+04    8.6848260E+06    5.2487940E+04    8.6926421E+06
    2.72   400.000   -2.649E+02    8.5500465E+06   -5.3450511E+04   -4.5748409E+04    8.5500465E+06    4.5748432E+04    8.5577486E+06
    2.73   400.000   -2.653E+02    8.3810107E+06   -4.3338141E+04   -3.5943306E+04    8.3810107E+06    3.5943319E+04    8.3884055E+06
    2.74   400.000   -2.658E+02    8.1813267E+06   -2.9854946E+04   -2.2926415E+04    8.1813266E+06    2.2926417E+04    8.1882552E+06
    2.75   400.000   -2.663E+02    7.9575178E+06   -1.3449036E+04   -7.0812488E+03    7.9575177E+06    7.0812411E+03    7.9638855E+06
    2.76   400.000   -2.667E+02    7.7180913E+06    5.0516532E+03    1.0843694E+04    7.7180913E+06   -1.0843711E+04    7.7238833E+06
    2.77   400.000   -2.671E+02    7.4724724E+06    2.4657682E+04    2.9936960E+04    7.4724724E+06   -2.9936985E+04    7.4777516E+06
    2.78   400.000   -2.675E+02    7.2301425E+06    4.4333162E+04    4.9227873E+04    7.2301425E+06   -4.9227905E+04    7.2350372E+06
    2.79   400.000   -2.679E+02    7.0000014E+06    6.2968300E+04    6.7654417E+04    7.0000014E+06   -6.7654456E+04    7.0046875E+06
    2.80   400.000   -2.683E+02    6.7898270E+06    7.9292774E+04    8.3976977E+04    6.7898270E+06   -8.3977022E+04    6.7945112E+06
    2.81   400.000   -2.687E+02    6.6058561E+06    9.1864624E+04    9.6769881E+04    6.6058560E+06   -9.6769932E+04    6.6107613E+06
    2.82   400.000   -2.691E+02    6.4526732E+06    9.9225150E+04    1.0457913E+05    6.4526732E+06   -1.0457919E+05    6.4580271E+06
    2.83   400.000   -2.695E+02    6.3334858E+06    1.0020844E+05    1.0623412E+05    6.3334857E+06   -1.0623418E+05    6.3395114E+06
    2.84   400.000   -2.699E+02    6.2505479E+06    9.4293766E+04    1.0120183E+05    6.2505479E+06   -1.0120190E+05    6.2574559E+06
    2.85   400.000   -2.702E+02    6.2053135E+06    8.1844347E+04    8.9827488E+04    6.2053135E+06   -8.9827566E+04    6.2132966E+06
    2.86   400.000   -2.706E+02    6.1980310E+06    6.4114890E+04    7.3344071E+04    6.1980309E+06   -7.3344157E+04    6.2072600E+06
    2.87   400.000   -2.710E+02    6.2268103E+06    4.3014370E+04    5.3635962E+04    6.2268101E+06   -5.3636056E+04    6.2374317E+06
    2.88   400.000   -2.714E+02    6.2864990E+06    2.0718864E+04    3.2849630E+04    6.2864989E+06   -3.2849733E+04    6.2986297E+06
    2.89   400.000   -2.718E+02    6.3678624E+06   -7.2038269E+02    1.2995338E+04    6.3678622E+06   -1.2995449E+04    6.3815779E+06
    2.90   400.000   -2.722E+02    6.4575386E+06   -1.9657678E+04   -4.3425425E+03    6.4575385E+06    4.3424244E+03    6.4728536E+06
    2.91   400.000   -2.726E+02    6.5390545E+06   -3.4983231E+04   -1.8141936E+04    6.5390544E+06    1.8141812E+04    6.5558957E+06
    2.92   400.000   -2.730E+02    6.5949034E+06   -4.6132796E+04   -2.7948488E+04    6.5949033E+06    2.7948361E+04    6.6130876E+06
    2.93   400.000   -2.734E+02    6.6093984E+06   -5.3030612E+04   -3.3799926E+04    6.6093983E+06    3.3799798E+04    6.6286290E+06
    2.94   400.000   -2.738E+02    6.5717417E+06   -5.6003383E+04   -3.6111208E+04    6.5717416E+06    3.6111083E+04    6.5916337E+06
    2.95   400.000   -2.742E+02    6.4785278E+06   -5.5677474E+04   -3.5545025E+04    6.4785277E+06    3.5544904E+04    6.4986602E+06
    2.96   400.000   -2.746E+02    6.3348480E+06   -5.2862999E+04   -3.2885412E+04    6.3348479E+06    3.2885299E+04    6.3548255E+06
    2.97   400.000   -2.750E+02    6.1534734E+06   -4.8438030E+04   -2.8934484E+04    6.1534733E+06    2.8934381E+04    6.1729769E+06
    2.98   400.000   -2.754E+02    5.9522606E+06   -4.3256322E+04   -2.4449855E+04    5.9522606E+06    2.4449762E+04    5.9710670E+06
    2.99   400.000   -2.758E+02    5.7505542E+06   -3.8094869E+04   -2.0123700E+04    5.7505542E+06    2.0123617E+04    5.7685253E+06
    3.00   400.000   -2.762E+02    5.5655666E+06   -3.3633272E+04   -1.6580123E+04    5.5655665E+06    1.6580050E+04    5.5826197E+06
    3.01   400.000   -2.766E+02    5.4095223E+06   -3.0436563E+04   -1.4356914E+04    5.4095223E+06    1.4356850E+04    5.4256019E+06
    3.02   400.000   -2.770E+02    5.2880755E+06   -2.8914892E+04   -1.3851682E+04    5.2880754E+06    1.3851625E+04    5.3031386E+06
    3.03   400.000   -2.773E+02    5.2003028E+06   -2.9251755E+04   -1.5236555E+04    5.2003027E+06    1.5236505E+04    5.2143179E+06
    3.04   400.000   -2.777E+02    5.1402830E+06   -3.1317633E+04   -1.8366891E+04    5.1402829E+06    1.8366847E+04    5.1532336E+06
    3.05   400.000   -2.781E+02    5.0997605E+06   -3.4615237E+04   -2.2729496E+04    5.0997604E+06    2.2729458E+04    5.1116461E+06
    3.06   400.000   -2.785E+02    5.0709105E+06   -3.8317353E+04   -2.7484377E+04    5.0709104E+06    2.7484346E+04    5.0817434E+06
    3.07   400.000   -2.789E+02    5.0481673E+06   -4.1430358E+04   -3.1627329E+04    5.0481672E+06    3.1627305E+04    5.0579702E+06
    3.08   400.000   -2.793E+02    5.0286026E+06   -4.3052803E+04   -3.4243073E+04    5.0286025E+06    3.4243055E+04    5.0374122E+06
    3.09   400.000   -2.797E+02    5.0111419E+06   -4.2643215E+04   -3.4768174E+04    5.0111418E+06    3.4768164E+04    5.0190168E+06
    3.10   400.000   -2.801E+02    4.9954754E+06   -4.0196951E+04   -3.3168036E+04    4.9954753E+06    3.3168033E+04    5.0025042E+06
    3.11   400.000   -2.805E+02    4.9815383E+06   -3.6257601E+04   -2.9953644E+04    4.9815382E+06    2.9953648E+04    4.9878422E+06
    3.12   400.000   -2.809E+02    4.9699372E+06   -3.1744846E+04   -2.6016444E+04    4.9699371E+06    2.6016454E+04    4.9756655E+06
    3.13   400.000   -2.813E+02    4.9630220E+06   -2.7656955E+04   -2.2335760E+04    4.9630219E+06    2.2335776E+04    4.9683431E+06
    3.14   400.000   -2.817E+02    4.9658383E+06   -2.4769448E+04   -1.9678595E+04    4.9658382E+06    1.9678616E+04    4.9709291E+06
    3.15   400.000   -2.821E+02    4.9861997E+06   -2.3454516E+04   -1.8416955E+04    4.9861996E+06    1.8416980E+04    4.9912372E+06
    3.16   400.000   -2.825E+02    5.0335623E+06   -2.3677217E+04   -1.8520227E+04    5.0335622E+06    1.8520256E+04    5.0387192E+06
    3.17   400.000   -2.829E+02    5.1169915E+06   -2.5131997E+04   -1.9687599E+04    5.1169914E+06    1.9687632E+04    5.1224358E+06
    3.18   400.000   -2.833E+02    5.2429153E+06   -2.7429228E+04   -2.1531229E+04    5.2429152E+06    2.1531264E+04    5.2488132E+06
    3.19   400.000   -2.837E+02    5.4133977E+06   -3.0247010E+04   -2.3726201E+04    5.4133977E+06    2.3726239E+04    5.4199185E+06
    3.20   400.000   -2.841E+02    5.6254268E+06   -3.3405755E+04   -2.6085485E+04    5.6254268E+06    2.6085525E+04    5.6327470E+06
    3.21   400.000   -2.845E+02    5.8713546E+06   -3.6868512E+04   -2.8563707E+04    5.8713546E+06    2.8563749E+04    5.8796594E+06
    3.22   400.000   -2.849E+02    6.1402873E+06   -4.0694954E+04   -3.1218584E+04    6.1402873E+06    3.1218626E+04    6.1497637E+06
    3.23   400.000   -2.854E+02    6.4199364E+06   -4.4974854E+04   -3.4155815E+04    6.4199364E+06    3.4155859E+04    6.4307554E+06
    3.24   400.000   -2.858E+02    6.6982694E+06   -4.9752446E+04   -3.7466503E+04    6.6982694E+06    3.7466549E+04    6.7105554E+06
    3.25   400.000   -2.862E+02    6.9643228E+06   -5.4950345E+04   -4.1160433E+04    6.9643229E+06    4.1160480E+04    6.9781128E+06
    3.26   400.000   -2.867E+02    7.2078907E+06   -6.0317908E+04   -4.5113165E+04    7.2078908E+06    4.5113215E+04    7.2230955E+06
    3.27   400.000   -2.872E+02    7.4184468E+06   -6.5441507E+04   -4.9059533E+04    7.4184469E+06    4.9059588E+04    7.4348289E+06
    3.28   400.000   -2.877E+02    7.5842461E+06   -6.9832934E+04   -5.2651075E+04    7.5842463E+06    5.2651133E+04    7.6014281E+06
    3.29   400.000   -2.881E+02    7.6925744E+06   -7.3061497E+04   -5.5552527E+04    7.6925745E+06    5.5552588E+04    7.7100835E+06
    3.30   400.000   -2.886E+02    7.7314048E+06   -7.4861357E+04   -5.7523670E+04    7.7314050E+06    5.7523733E+04    7.7487426E+06
    3.31   400.000   -2.891E+02    7.6917849E+06   -7.5164549E+04   -5.8448801E+04    7.6917850E+06    5.8448865E+04    7.7085008E+06
    3.32   400.000   -2.896E+02    7.5698814E+06   -7.4063570E+04   -5.8318452E+04    7.5698815E+06    5.8318515E+04    7.5856266E+06
    3.33   400.000   -2.901E+02    7.3680065E+06   -7.1745927E+04   -5.7194651E+04    7.3680066E+06    5.7194712E+04    7.3825579E+06
    3.34   400.000   -2.907E+02    7.0946498E+06   -6.8442381E+04   -5.5186609E+04    7.0946499E+06    5.5186667E+04    7.1079057E+06
    3.35   400.000   -2.911E+02    6.7638908E+06   -6.4407086E+04   -5.2446407E+04    6.7638909E+06    5.2446462E+04    6.7758516E+06
    3.36   400.000   -2.916E+02    6.3943883E+06   -5.9926825E+04   -4.9182698E+04    6.3943884E+06    4.9182749E+04    6.4051326E+06
    3.37   400.000   -2.921E+02    6.0077898E+06   -5.5344607E+04   -4.5683300E+04    6.0077899E+06    4.5683347E+04    6.0174512E+06
    3.38   400.000   -2.926E+02    5.6263805E+06   -5.1074769E+04   -4.2328027E+04    5.6263806E+06    4.2328070E+04    5.6351274E+06
    3.39   400.000   -2.931E+02    5.2702425E+06   -4.7584623E+04   -3.9567386E+04    5.2702426E+06    3.9567425E+04    5.2782598E+06
    3.40   400.000   -2.936E+02    4.9547284E+06   -4.5331152E+04   -3.7854402E+04    4.9547285E+06    3.7854436E+04    4.9622052E+06
    3.41   400.000   -2.941E+02    4.6891280E+06   -4.4668536E+04   -3.7545043E+04    4.6891280E+06    3.7545072E+04    4.6962515E+06
    3.42   400.000   -2.946E+02    4.4768726E+06   -4.5764573E+04   -3.8807105E+04    4.4768727E+06    3.8807130E+04    4.4838301E+06
    3.43   400.000   -2.951E+02    4.3168874E+06   -4.8563165E+04   -4.1577887E+04    4.3168874E+06    4.1577907E+04    4.3238727E+06
    3.44   400.000   -2.956E+02    4.2052702E+06   -5.2807231E+04   -4.5587718E+04    4.2052702E+06    4.5587733E+04    4.2124897E+06
    3.45   400.000   -2.961E+02    4.1365549E+06   -5.8107042E+04   -5.0435161E+04    4.1365549E+06    5.0435172E+04    4.1442268E+06
    3.46   400.000   -2.966E+02    4.1042658E+06   -6.4015747E+04   -5.5674262E+04    4.1042658E+06    5.5674269E+04    4.1126073E+06
    3.47   400.000   -2.971E+02    4.1010067E+06   -7.0066732E+04   -6.0865409E+04    4.1010067E+06    6.0865412E+04    4.1102080E+06
    3.48   400.000   -2.977E+02    4.1186276E+06   -7.5750337E+04   -6.5562987E+04    4.1186276E+06    6.5562986E+04    4.1288150E+06
    3.49   400.000   -2.982E+02    4.1488983E+06   -8.0459977E+04   -6.9264536E+04    4.1488983E+06    6.9264531E+04    4.1600937E+06
    3.50   400.000   -2.987E+02    4.1846655E+06   -8.3482938E+04   -7.1391588E+04    4.1846655E+06    7.1391580E+04    4.1967568E+06
    3.51   400.000   -2.993E+02    4.2210335E+06   -8.4100272E+04   -7.1364901E+04    4.2210335E+06    7.1364890E+04    4.2337688E+06
    3.52   400.000   -2.998E+02    4.2559742E+06   -8.1787301E+04   -6.8771035E+04    4.2559741E+06    6.8771022E+04    4.2689904E+06
    3.53   400.000   -3.004E+02    4.2900201E+06   -7.6424014E+04   -6.3542592E+04    4.2900200E+06    6.3542576E+04    4.3029015E+06
    3.54   400.000   -3.009E+02    4.3251376E+06   -6.8399319E+04   -5.6050433E+04    4.3251376E+06    5.6050416E+04    4.3374865E+06
    3.55   400.000   -3.015E+02    4.3632641E+06   -5.8546240E+04   -4.7050756E+04    4.3632641E+06    4.7050738E+04    4.3747596E+06
    3.56   400.000   -3.020E+02    4.4051238E+06   -4.7937218E+04   -3.7508846E+04    4.4051238E+06    3.7508828E+04    4.4155522E+06
    3.57   400.000   -3.026E+02    4.4497898E+06   -3.7635150E+04   -2.8380153E+04    4.4497898E+06    2.8380135E+04    4.4590448E+06
    3.58   400.000   -3.032E+02    4.4951255E+06   -2.8498200E+04   -2.0434498E+04    4.4951255E+06    2.0434481E+04    4.5031892E+06
    3.59   400.000   -3.037E+02    4.5388835E+06   -2.1085231E+04   -1.4167251E+04    4.5388835E+06    1.4167237E+04    4.5458015E+06
    3.60   400.000   -3.043E+02    4.5799897E+06   -1.5647339E+04   -9.7874560E+03    4.5799897E+06    9.7874452E+03    4.5858496E+06
    3.61   400.000   -3.049E+02    4.6195112E+06   -1.2160773E+04   -7.2446120E+03    4.6195112E+06    7.2446051E+03    4.6244273E+06
    3.62   400.000   -3.055E+02    4.6609585E+06   -1.0368723E+04   -6.2655738E+03    4.6609585E+06    6.2655719E+03    4.6650617E+06
    3.63   400.000   -3.061E+02    4.7097889E+06   -9.8298517E+03   -6.4001462E+03    4.7097889E+06    6.4001501E+03    4.7132186E+06
    3.64   400.000   -3.066E+02    4.7721290E+06   -9.9856971E+03   -7.0866151E+03    4.7721290E+06    7.0866255E+03    4.7750281E+06
    3.65   400.000   -3.072E+02    4.8528861E+06   -1.0247642E+04   -7.7370395E+03    4.8528861E+06    7.7370565E+03    4.8553967E+06
    3.66   400.000   -3.078E+02    4.9536502E+06   -1.0087375E+04   -7.8260050E+03    4.9536502E+06    7.8260284E+03    4.9559115E+06
    3.67   400.000   -3.083E+02    5.0710523E+06   -9.1141558E+03   -6.9664233E+03    5.0710523E+06    6.9664522E+03    5.0732001E+06
    3.68   400.000   -3.088E+02    5.1963216E+06   -7.1338716E+03   -4.9677792E+03    5.1963216E+06    4.9678121E+03    5.1984877E+06
    3.69   400.000   -3.094E+02    5.3165082E+06   -4.1881201E+03   -1.8754501E+03    5.3165082E+06    1.8754855E+03    5.3188208E+06
    3.70   400.000   -3.099E+02    5.4172691E+06   -5.5943358E+02    2.0225529E+03    5.4172691E+06   -2.0225171E+03    5.4198511E+06
    3.71   400.000   -3.104E+02    5.4864699E+06    3.2799105E+03    6.2439541E+03    5.4864699E+06   -6.2439193E+03    5.4894339E+06
    3.72   400.000   -3.109E+02    5.5174306E+06    6.7814787E+03    1.0222035E+04    5.5174305E+06   -1.0222003E+04    5.5208710E+06
    3.73   400.000   -3.114E+02    5.5106916E+06    9.4670743E+03    1.3448282E+04    5.5106915E+06   -1.3448252E+04    5.5146727E+06
    3.74   400.000   -3.119E+02    5.4737383E+06    1.1053993E+04    1.5595579E+04    5.4737383E+06   -1.5595552E+04    5.4782798E+06
    3.75   400.000   -3.123E+02    5.4189307E+06    1.1512058E+04    1.6576903E+04    5.4189307E+06   -1.6576879E+04    5.4239955E+06
    3.76   400.000   -3.128E+02    5.3605132E+06    1.1035971E+04    1.6524522E+04    5.3605132E+06   -1.6524500E+04    5.3660017E+06
    3.77   400.000   -3.132E+02    5.3117277E+06    9.9511103E+03    1.5707381E+04    5.3117277E+06   -1.5707359E+04    5.3174840E+06
    3.78   400.000   -3.136E+02    5.2827392E+06    8.5928800E+03    1.4423716E+04    5.2827392E+06   -1.4423693E+04    5.2885700E+06
    3.79   400.000   -3.140E+02    5.2795351E+06    7.2008434E+03    1.2905283E+04    5.2795352E+06   -1.2905259E+04    5.2852396E+06
    3.80   400.000   -3.144E+02    5.3035165E+06    5.8552700E+03    1.1256563E+04    5.3035166E+06   -1.1256535E+04    5.3089179E+06
    3.81   400.000   -3.148E+02    5.3514402E+06    4.4724702E+03    9.4441422E+03    5.3514403E+06   -9.4441120E+03    5.3564119E+06
    3.82   400.000   -3.152E+02    5.4157236E+06    2.8707087E+03    7.3506656E+03    5.4157238E+06   -7.3506329E+03    5.4202037E+06
    3.83   400.000   -3.156E+02    5.4854931E+06    8.9972529E+02    4.8911935E+03    5.4854932E+06   -4.8911588E+03    5.4894847E+06
    3.84   400.000   -3.159E+02    5.5486555E+06   -1.4187052E+03    2.1437708E+03    5.5486557E+06   -2.1437350E+03    5.5522182E+06
    3.85   400.000   -3.163E+02    5.5946349E+06   -3.8284855E+03   -5.9312342E+02    5.5946351E+06    5.9315928E+02    5.5978704E+06
    3.86   400.000   -3.167E+02    5.6167671E+06   -5.9164559E+03   -2.8781205E+03    5.6167672E+06    2.8781555E+03    5.6198056E+06
    3.87   400.000   -3.170E+02    5.6133509E+06   -7.3009644E+03   -4.3133178E+03    5.6133511E+06    4.3133510E+03    5.6163388E+06
    3.88   400.000   -3.174E+02    5.5870838E+06   -7.8279037E+03   -4.7377429E+03    5.5870840E+06    4.7377736E+03    5.5901741E+06
    3.89   400.000   -3.177E+02    5.5434915E+06   -7.6700642E+03   -4.3251509E+03    5.5434917E+06    4.3251789E+03    5.5468366E+06
    3.90   400.000   -3.181E+02    5.4893190E+06   -7.2857912E+03   -3.5424457E+03    5.4893192E+06    3.5424711E+03    5.4930625E+06
    3.91   400.000   -3.184E+02    5.4315100E+06   -7.2615035E+03   -2.9925161E+03    5.4315102E+06    2.9925393E+03    5.4357792E+06
    3.92   400.000   -3.187E+02    5.3767935E+06   -8.1092989E+03   -3.2110821E+03    5.3767936E+06    3.2111036E+03    5.3816918E+06
    3.93   400.000   -3.191E+02    5.3315282E+06   -1.0107173E+04   -4.5032335E+03    5.3315283E+06    4.5032542E+03    5.3371322E+06
    3.94   400.000   -3.194E+02    5.3015159E+06   -1.3248368E+04   -6.8853120E+03    5.3015160E+06    6.8853328E+03    5.3078791E+06
    3.95   400.000   -3.197E+02    5.2917207E+06   -1.7312416E+04   -1.0146142E+04    5.2917208E+06    1.0146164E+04    5.2988871E+06
    3.96   400.000   -3.200E+02    5.3059656E+06   -2.2013596E+04   -1.3987232E+04    5.3059657E+06    1.3987255E+04    5.3139920E+06
    3.97   400.000   -3.203E+02    5.3466784E+06   -2.7158186E+04   -1.8177748E+04    5.3466784E+06    1.8177773E+04    5.3556588E+06
    3.98   400.000   -3.206E+02    5.4147150E+06   -3.2756675E+04   -2.2672552E+04    5.4147150E+06    2.2672580E+04    5.4247991E+06
    3.99   400.000   -3.209E+02    5.5092443E+06   -3.9065050E+04   -2.7665971E+04    5.5092443E+06    2.7666001E+04    5.5206434E+06
    4.00   400.000   -3.212E+02    5.6276470E+06   -4.6541661E+04   -3.3564636E+04    5.6276469E+06    3.3564669E+04    5.6406240E+06
    4.01   400.000   -3.214E+02    5.7654014E+06   -5.5705210E+04   -4.0862478E+04    5.7654014E+06    4.0862512E+04    5.7802441E+06
    4.02   400.000   -3.217E+02    5.9159831E+06   -6.6899895E+04   -4.9922277E+04    5.9159830E+06    4.9922312E+04    5.9329607E+06
    4.03   400.000   -3.220E+02    6.0708348E+06   -8.0036420E+04   -6.0729407E+04    6.0708347E+06    6.0729441E+04    6.0901417E+06
    4.04   400.000   -3.222E+02    6.2194647E+06   -9.4439625E+04   -7.2742147E+04    6.2194646E+06    7.2742179E+04    6.2411621E+06
    4.05   400.000   -3.225E+02    6.3497356E+06   -1.0891853E+05   -8.4946826E+04    6.3497354E+06    8.4946854E+04    6.3737071E+06
    4.06   400.000   -3.227E+02    6.4484333E+06   -1.2206651E+05   -9.6122450E+04    6.4484332E+06    9.6122473E+04    6.4743773E+06
    4.07   400.000   -3.230E+02    6.5022276E+06   -1.3267238E+05   -1.0520263E+05    6.5022275E+06    1.0520265E+05    6.5296972E+06
    4.08   400.000   -3.232E+02    6.4991095E+06   -1.4006523E+05   -1.1157564E+05    6.4991094E+06    1.1157565E+05    6.5275990E+06
    4.09   400.000   -3.235E+02    6.4302538E+06   -1.4425259E+05   -1.1520320E+05    6.4302537E+06    1.1520321E+05    6.4593031E+06
    4.10   400.000   -3.237E+02    6.2919559E+06   -1.4580794E+05   -1.1652719E+05    6.2919557E+06    1.1652719E+05    6.3212365E+06
    4.11   400.000   -3.239E+02    6.0869825E+06   -1.4557111E+05   -1.1622251E+05    6.0869824E+06    1.1622251E+05    6.1163310E+06
    4.12   400.000   -3.242E+02    5.8246687E+06   -1.4429819E+05   -1.1491077E+05    5.8246685E+06    1.1491078E+05    5.8540560E+06
    4.13   400.000   -3.244E+02    5.5195529E+06   -1.4240861E+05   -1.1295384E+05    5.5195527E+06    1.1295384E+05    5.5490075E+06
    4.14   400.000   -3.247E+02    5.1890025E+06   -1.3992477E+05   -1.1040130E+05    5.1890024E+06    1.1040130E+05    5.2185259E+06
    4.15   400.000   -3.250E+02    4.8506501E+06   -1.3660842E+05   -1.0709298E+05    4.8506500E+06    1.0709299E+05    4.8801654E+06
    4.16   400.000   -3.252E+02    4.5203316E+06   -1.3220914E+05   -1.0284882E+05    4.5203315E+06    1.0284882E+05    4.5496918E+06
    4.17   400.000   -3.255E+02    4.2108100E+06   -1.2669317E+05   -9.7644368E+04    4.2108099E+06    9.7644370E+04    4.2398587E+06
    4.18   400.000   -3.257E+02    3.9312470E+06   -1.2033909E+05   -9.1686714E+04    3.9312470E+06    9.1686715E+04    3.9598993E+06
    4.19   400.000   -3.260E+02    3.6872925E+06   -1.1366229E+05   -8.5362636E+04    3.6872925E+06    8.5362637E+04    3.7155922E+06
    4.20   400.000   -3.262E+02    3.4816435E+06   -1.0722079E+05   -7.9097909E+04    3.4816435E+06    7.9097908E+04    3.5097664E+06
    4.21   400.000   -3.265E+02    3.3148283E+06   -1.0140777E+05   -7.3205903E+04    3.3148283E+06    7.3205901E+04    3.3430301E+06
    4.22   400.000   -3.268E+02    3.1858793E+06   -9.6327273E+04   -6.7797599E+04    3.1858793E+06    6.7797594E+04    3.2144090E+06
    4.23   400.000   -3.270E+02    3.0926414E+06   -9.1796362E+04   -6.2785610E+04    3.0926414E+06    6.2785604E+04    3.1216521E+06
    4.24   400.000   -3.273E+02    3.0317247E+06   -8.7455901E+04   -5.7969396E+04    3.0317247E+06    5.7969388E+04    3.0612112E+06
    4.25   400.000   -3.275E+02    2.9983680E+06   -8.2933358E+04   -5.3158701E+04    2.9983680E+06    5.3158690E+04    3.0281427E+06
    4.26   400.000   -3.278E+02    2.9865536E+06   -7.7990095E+04   -4.8281180E+04    2.9865536E+06    4.8281167E+04    3.0162625E+06
    4.27   400.000   -3.281E+02    2.9896001E+06   -7.2597104E+04   -4.3424997E+04    2.9896000E+06    4.3424982E+04    3.0187721E+06
    4.28   400.000   -3.283E+02    3.0012091E+06   -6.6913760E+04   -3.8792716E+04    3.0012091E+06    3.8792700E+04    3.0293301E+06
    4.29   400.000   -3.286E+02    3.0166466E+06   -6.1190361E+04   -3.4590762E+04    3.0166465E+06    3.4590745E+04    3.0432461E+06
    4.30   400.000   -3.289E+02    3.0335745E+06   -5.5656752E+04   -3.0923653E+04    3.0335745E+06    3.0923633E+04    3.0583076E+06
    4.31   400.000   -3.291E+02    3.0521820E+06   -5.0463678E+04   -2.7762822E+04    3.0521819E+06    2.7762801E+04    3.0748828E+06
    4.32   400.000   -3.294E+02    3.0746354E+06   -4.5699815E+04   -2.5005353E+04    3.0746354E+06    2.5005330E+04    3.0953298E+06
    4.33   400.000   -3.297E+02    3.1041990E+06   -4.1448931E+04   -2.2571700E+04    3.1041989E+06    2.2571677E+04    3.1230762E+06
    4.34   400.000   -3.300E+02    3.1444108E+06   -3.7828708E+04   -2.0470837E+04    3.1444107E+06    2.0470811E+04    3.1617686E+06
    4.35   400.000   -3.303E+02    3.1984858E+06   -3.4980871E+04   -1.8798057E+04    3.1984857E+06    1.8798029E+04    3.2146685E+06
    4.36   400.000   -3.306E+02    3.2688614E+06   -3.3029059E+04   -1.7684592E+04    3.2688614E+06    1.7684563E+04    3.2842058E+06
    4.37   400.000   -3.309E+02    3.3567030E+06   -3.2043631E+04   -1.7243632E+04    3.3567029E+06    1.7243601E+04    3.3715029E+06
    4.38   400.000   -3.313E+02    3.4612990E+06   -3.2038512E+04   -1.7543522E+04    3.4612989E+06    1.7543490E+04    3.4757939E+06
    4.39   400.000   -3.316E+02    3.5795295E+06   -3.2992373E+04   -1.8606204E+04    3.5795294E+06    1.8606171E+04    3.5939155E+06
    4.40   400.000   -3.319E+02    3.7057735E+06   -3.4864581E+04   -2.0406253E+04    3.7057734E+06    2.0406220E+04    3.7202318E+06
    4.41   400.000   -3.322E+02    3.8325384E+06   -3.7586232E+04   -2.2852900E+04    3.8325383E+06    2.2852867E+04    3.8472716E+06
    4.42   400.000   -3.325E+02    3.9517371E+06   -4.1041834E+04   -2.5769719E+04    3.9517370E+06    2.5769687E+04    3.9670091E+06
    4.43   400.000   -3.328E+02    4.0561783E+06   -4.5082389E+04   -2.8911239E+04    4.0561782E+06    2.8911208E+04    4.0723494E+06
    4.44   400.000   -3.332E+02    4.1407442E+06   -4.9591494E+04   -3.2038306E+04    4.1407441E+06    3.2038277E+04    4.1582973E+06
    4.45   400.000   -3.335E+02    4.2029882E+06   -5.4573206E+04   -3.5022173E+04    4.2029881E+06    3.5022146E+04    4.2225391E+06
    4.46   400.000   -3.338E+02    4.2432614E+06   -6.0195306E+04   -3.7910995E+04    4.2432613E+06    3.7910970E+04    4.2655456E+06
    4.47   400.000   -3.341E+02    4.2646308E+06   -6.6741261E+04   -4.0910300E+04    4.2646307E+06    4.0910276E+04    4.2904617E+06
    4.48   400.000   -3.344E+02    4.2727073E+06   -7.4480821E+04   -4.4284497E+04    4.2727072E+06    4.4284474E+04    4.3029035E+06
    4.49   400.000   -3.347E+02    4.2752897E+06   -8.3514477E+04   -4.8230899E+04    4.2752896E+06    4.8230877E+04    4.3105732E+06
    4.50   400.000   -3.350E+02    4.2817294E+06   -9.3654575E+04   -5.2782719E+04    4.2817293E+06    5.2782698E+04    4.3226012E+06
    4.51   400.000   -3.354E+02    4.3020942E+06   -1.0438642E+05   -5.7773894E+04    4.3020941E+06    5.7773874E+04    4.3487066E+06
    4.52   400.000   -3.357E+02    4.3463250E+06   -1.1492937E+05   -6.2872674E+04    4.3463248E+06    6.2872655E+04    4.3983815E+06
    4.53   400.000   -3.360E+02    4.4235246E+06   -1.2439800E+05   -6.7675929E+04    4.4235245E+06    6.7675912E+04    4.4802466E+06
    4.54   400.000   -3.363E+02    4.5414385E+06   -1.3203429E+05   -7.1843513E+04    4.5414384E+06    7.1843497E+04    4.6016292E+06
    4.55   400.000   -3.366E+02    4.7061575E+06   -1.3743820E+05   -7.5230411E+04    4.7061575E+06    7.5230396E+04    4.7683652E+06
    4.56   400.000   -3.370E+02    4.9220095E+06   -1.4069243E+05   -7.7954593E+04    4.9220094E+06    7.7954577E+04    4.9847473E+06
    4.57   400.000   -3.373E+02    5.1914525E+06   -1.4230369E+05   -8.0351334E+04    5.1914524E+06    8.0351316E+04    5.2534048E+06
    4.58   400.000   -3.376E+02    5.5147440E+06   -1.4297582E+05   -8.2821680E+04    5.5147439E+06    8.2821661E+04    5.5748981E+06
    4.59   400.000   -3.380E+02    5.8893841E+06   -1.4332841E+05   -8.5648826E+04    5.8893840E+06    8.5648805E+04    5.9470636E+06
    4.60   400.000   -3.383E+02    6.3096417E+06   -1.4369956E+05   -8.8876506E+04    6.3096416E+06    8.8876483E+04    6.3644647E+06
    4.61   400.000   -3.387E+02    6.7665292E+06   -1.4410337E+05   -9.2298777E+04    6.7665292E+06    9.2298753E+04    6.8183338E+06
    4.62   400.000   -3.390E+02    7.2482962E+06   -1.4431360E+05   -9.5539331E+04    7.2482962E+06    9.5539307E+04    7.2970705E+06
    4.63   400.000   -3.394E+02    7.7411215E+06   -1.4399495E+05   -9.8160582E+04    7.7411215E+06    9.8160561E+04    7.7869558E+06
    4.64   400.000   -3.398E+02    8.2295580E+06   -1.4282427E+05   -9.9760934E+04    8.2295580E+06    9.9760915E+04    8.2726213E+06
    4.65   400.000   -3.401E+02    8.6966258E+06   -1.4059305E+05   -1.0006145E+05    8.6966257E+06    1.0006143E+05    8.7371573E+06
    4.66   400.000   -3.405E+02    9.1240884E+06   -1.3730775E+05   -9.9003948E+04    9.1240883E+06    9.9003936E+04    9.1623921E+06
    4.67   400.000   -3.409E+02    9.4938040E+06   -1.3328941E+05   -9.6860385E+04    9.4938039E+06    9.6860377E+04    9.5302329E+06
    4.68   400.000   -3.413E+02    9.7905899E+06   -1.2923261E+05   -9.4302686E+04    9.7905899E+06    9.4302680E+04    9.8255198E+06
    4.69   400.000   -3.417E+02    1.0005913E+07   -1.2615047E+05   -9.2345593E+04    1.0005913E+07    9.2345588E+04    1.0039717E+07
    4.70   400.000   -3.422E+02    1.0140738E+07   -1.2515250E+05   -9.2104466E+04    1.0140738E+07    9.2104459E+04    1.0173786E+07
    4.71   400.000   -3.426E+02    1.0205875E+07   -1.2709477E+05   -9.4418171E+04    1.0205875E+07    9.4418162E+04    1.0238551E+07
    4.72   400.000   -3.430E+02    1.0219242E+07   -1.3224942E+05   -9.9502938E+04    1.0219242E+07    9.9502926E+04    1.0251989E+07
    4.73   400.000   -3.434E+02    1.0201023E+07   -1.4016168E+05   -1.0681806E+05    1.0201023E+07    1.0681804E+05    1.0234367E+07
    4.74   400.000   -3.438E+02    1.0168583E+07   -1.4976116E+05   -1.1520845E+05    1.0168583E+07    1.1520843E+05    1.0203136E+07
    4.75   400.000   -3.442E+02    1.0132891E+07   -1.5964757E+05   -1.2323335E+05    1.0132891E+07    1.2323333E+05    1.0169305E+07
    4.76   400.000   -3.446E+02    1.0097239E+07   -1.6839871E+05   -1.2951752E+05    1.0097239E+07    1.2951749E+05    1.0136121E+07
    4.77   400.000   -3.450E+02    1.0058129E+07   -1.7479105E+05   -1.3300675E+05    1.0058129E+07    1.3300672E+05    1.0099913E+07
    4.78   400.000   -3.454E+02    1.0007696E+07   -1.7791813E+05   -1.3310178E+05    1.0007696E+07    1.3310174E+05    1.0052512E+07
    4.79   400.000   -3.458E+02    9.9369674E+06   -1.7724805E+05   -1.2969617E+05    9.9369673E+06    1.2969613E+05    9.9845192E+06
    4.80   400.000   -3.462E+02    9.8392259E+06   -1.7265380E+05   -1.2314069E+05    9.8392258E+06    1.2314066E+05    9.8887390E+06
    4.81   400.000   -3.466E+02    9.7126563E+06   -1.6441890E+05   -1.1414453E+05    9.7126563E+06    1.1414450E+05    9.7629306E+06
    4.82   400.000   -3.470E+02    9.5614116E+06   -1.5320116E+05   -1.0363055E+05    9.5614116E+06    1.0363053E+05    9.6109822E+06
    4.83   400.000   -3.474E+02    9.3946483E+06   -1.3993883E+05   -9.2573330E+04    9.3946483E+06    9.2573324E+04    9.4420138E+06
    4.84   400.000   -3.478E+02    9.2240202E+06   -1.2570295E+05   -8.1851045E+04    9.2240202E+06    8.1851049E+04    9.2678721E+06
    4.85   400.000   -3.481E+02    9.0609898E+06   -1.1152609E+05   -7.2135266E+04    9.0609897E+06    7.2135282E+04    9.1003806E+06
    4.86   400.000   -3.485E+02    8.9153301E+06   -9.8247292E+04   -6.3827784E+04    8.9153301E+06    6.3827810E+04    8.9497496E+06
    4.87   400.000   -3.488E+02    8.7952186E+06   -8.6401573E+04   -5.7038817E+04    8.7952186E+06    5.7038852E+04    8.8245813E+06
    4.88   400.000   -3.492E+02    8.7081358E+06   -7.6172812E+04   -5.1602987E+04    8.7081358E+06    5.1603029E+04    8.7327056E+06
    4.89   400.000   -3.495E+02    8.6613365E+06   -6.7430734E+04   -4.7146124E+04    8.6613365E+06    4.7146170E+04    8.6816211E+06
    4.90   400.000   -3.499E+02    8.6611768E+06   -5.9860905E+04   -4.3215811E+04    8.6611767E+06    4.3215858E+04    8.6778218E+06
    4.91   400.000   -3.502E+02    8.7114797E+06   -5.3153489E+04   -3.9451835E+04    8.7114797E+06    3.9451881E+04    8.7251813E+06
    4.92   400.000   -3.506E+02    8.8117372E+06   -4.7169725E+04   -3.5727171E+04    8.8117371E+06    3.5727213E+04    8.8231797E+06
    4.93   400.000   -3.509E+02    8.9560399E+06   -4.2002016E+04   -3.2184453E+04    8.9560399E+06    3.2184490E+04    8.9658575E+06
    4.94   400.000   -3.513E+02    9.1333533E+06   -3.7896457E+04   -2.9141802E+04    9.1333532E+06    2.9141834E+04    9.1421078E+06
    4.95   400.000   -3.516E+02    9.3292214E+06   -3.5081214E+04   -2.6912731E+04    9.3292213E+06    2.6912757E+04    9.3373897E+06
    4.96   400.000   -3.520E+02    9.5283229E+06   -3.3590757E+04   -2.5628704E+04    9.5283228E+06    2.5628725E+04    9.5362849E+06
    4.97   400.000   -3.524E+02    9.7168497E+06   -3.3165716E+04   -2.5140675E+04    9.7168496E+06    2.5140691E+04    9.7248747E+06
    4.98   400.000   -3.528E+02    9.8838422E+06   -3.3257565E+04   -2.5023925E+04    9.8838421E+06    2.5023939E+04    9.8920758E+06
    4.99   400.000   -3.531E+02    1.0021345E+07   -3.3126528E+04   -2.4669665E+04    1.0021345E+07    2.4669679E+04    1.0029802E+07
    5.00   400.000   -3.535E+02    1.0123938E+07   -3.2013895E+04   -2.3442067E+04    1.0123938E+07    2.3442082E+04    1.0132510E+07
# T(K) = 500.00   Npoints =    1001   V(cm^3) =  1.231E-20
   -5.00   500.000    3.716E+02    2.7988885E+06   -5.2322679E+04   -4.7508514E+04    2.7988885E+06    4.7508522E+04    2.8037026E+06
   -4.99   500.000    3.706E+02    2.8081248E+06   -5.1807582E+04   -4.7129045E+04    2.8081248E+06    4.7129051E+04    2.8128034E+06
   -4.98   500.000    3.697E+02    2.8191874E+06   -5.1238944E+04   -4.6730720E+04    2.8191874E+06    4.6730724E+04    2.8236956E+06
   -4.97   500.000    3.687E+02    2.8332864E+06   -5.0577600E+04   -4.6267621E+04    2.8332864E+06    4.6267624E+04    2.8375964E+06
   -4.96   500.000    3.678E+02    2.8513145E+06   -4.9767085E+04   -4.5677258E+04    2.8513145E+06    4.5677259E+04    2.8554043E+06
   -4.95   500.000    3.669E+02    2.8738646E+06   -4.8743634E+04   -4.4890451E+04    2.8738646E+06    4.4890450E+04    2.8777177E+06
   -4.94   500.000    3.660E+02    2.9012014E+06   -4.7446473E+04   -4.3841262E+04    2.9012014E+06    4.3841259E+04    2.9048066E+06
   -4.93   500.000    3.651E+02    2.9331873E+06   -4.5827211E+04   -4.2475987E+04    2.9331874E+06    4.2475983E+04    2.9365386E+06
   -4.92   500.000    3.642E+02    2.9692006E+06   -4.3857821E+04   -4.0760898E+04    2.9692006E+06    4.0760892E+04    2.9722975E+06
   -4.91   500.000    3.633E+02    3.0080989E+06   -4.1537009E+04   -3.8688628E+04    3.0080989E+06    3.8688621E+04    3.0109473E+06
   -4.90   500.000    3.625E+02    3.0482718E+06   -3.8894597E+04   -3.6282854E+04    3.0482718E+06    3.6282845E+04    3.0508836E+06
   -4.89   500.000    3.616E+02    3.0877924E+06   -3.5993065E+04   -3.3600316E+04    3.0877925E+06    3.3600306E+04    3.0901852E+06
   -4.88   500.000    3.608E+02    3.1246399E+06   -3.2925185E+04   -3.0728947E+04    3.1246399E+06    3.0728936E+04    3.1268362E+06
   -4.87   500.000    3.600E+02    3.1569363E+06   -2.9807047E+04   -2.7781271E+04    3.1569363E+06    2.7781260E+04    3.1589621E+06
   -4.86   500.000    3.592E+02    3.1831359E+06   -2.6766834E+04   -2.4883326E+04    3.1831359E+06    2.4883315E+04    3.1850194E+06
   -4.85   500.000    3.584E+02    3.2021228E+06   -2.3930756E+04   -2.2160535E+04    3.2021229E+06    2.2160524E+04    3.2038931E+06
   -4.84   500.000    3.576E+02    3.2132089E+06   -2.1408253E+04   -1.9722699E+04    3.2132089E+06    1.9722689E+04    3.2148945E+06
   -4.83   500.000    3.568E+02    3.2160531E+06   -1.9278713E+04   -1.7650492E+04    3.2160531E+06    1.7650483E+04    3.2176814E+06
   -4.82   500.000    3.560E+02    3.2105480E+06   -1.7581874E+04   -1.5985746E+04    3.2105480E+06    1.5985739E+04    3.2121441E+06
   -4.81   500.000    3.552E+02    3.1967155E+06   -1.6313881E+04   -1.4727522E+04    3.1967156E+06    1.4727516E+04    3.1983019E+06
   -4.80   500.000    3.545E+02    3.1746451E+06   -1.5430273E+04   -1.3835204E+04    3.1746451E+06    1.3835199E+04    3.1762402E+06
   -4.79   500.000    3.537E+02    3.1444822E+06   -1.4855780E+04   -1.3238373E+04    3.1444822E+06    1.3238369E+04    3.1460996E+06
   -4.78   500.000    3.530E+02    3.1064569E+06   -1.4499016E+04   -1.2851381E+04    3.1064569E+06    1.2851378E+04    3.1081045E+06
   -4.77   500.000    3.522E+02    3.0609257E+06   -1.4268660E+04   -1.2589150E+04    3.0609257E+06    1.2589147E+04    3.0626052E+06
   -4.76   500.000    3.514E+02    3.0083992E+06   -1.4087469E+04   -1.2380525E+04    3.0083992E+06    1.2380522E+04    3.0101061E+06
   -4.75   500.000    3.507E+02    2.9495414E+06   -1.3901294E+04   -1.2176507E+04    2.9495413E+06    1.2176503E+04    2.9512661E+06
   -4.74   500.000    3.500E+02    2.8851430E+06   -1.3681908E+04   -1.1952339E+04    2.8851429E+06    1.1952333E+04    2.8868725E+06
   -4.73   500.000    3.492E+02    2.8160815E+06   -1.3424105E+04   -1.1704105E+04    2.8160814E+06    1.1704098E+04    2.8178014E+06
   -4.72   500.000    3.485E+02    2.7432757E+06   -1.3138757E+04   -1.1441695E+04    2.7432757E+06    1.1441686E+04    2.7449727E+06
   -4.71   500.000    3.477E+02    2.6676361E+06   -1.2844200E+04   -1.1180503E+04    2.6676361E+06    1.1180493E+04    2.6692998E+06
   -4.70   500.000    3.470E+02    2.5900072E+06   -1.2558195E+04   -1.0934109E+04    2.5900071E+06    1.0934097E+04    2.5916312E+06
   -4.69   500.000    3.463E+02    2.5111049E+06   -1.2292138E+04   -1.0709395E+04    2.5111048E+06    1.0709384E+04    2.5126876E+06
   -4.68   500.000    3.455E+02    2.4314654E+06   -1.2048281E+04   -1.0504718E+04    2.4314653E+06    1.0504706E+04    2.4330089E+06
   -4.67   500.000    3.448E+02    2.3514272E+06   -1.1819988E+04   -1.0310868E+04    2.3514272E+06    1.0310856E+04    2.3529363E+06
   -4.66   500.000    3.441E+02    2.2711622E+06   -1.1594432E+04   -1.0114112E+04    2.2711621E+06    1.0114100E+04    2.2726425E+06
   -4.65   500.000    3.434E+02    2.1907468E+06   -1.1356780E+04   -9.9002762E+03    2.1907467E+06    9.9002656E+03    2.1922033E+06
   -4.64   500.000    3.427E+02    2.1102470E+06   -1.1094606E+04   -9.6586738E+03    2.1102470E+06    9.6586643E+03    2.1116829E+06
   -4.63   500.000    3.420E+02    2.0297780E+06   -1.0801170E+04   -9.3846830E+03    2.0297780E+06    9.3846747E+03    2.0311945E+06
   -4.62   500.000    3.413E+02    1.9495122E+06   -1.0476515E+04   -9.0801341E+03    1.9495122E+06    9.0801270E+03    1.9509086E+06
   -4.61   500.000    3.407E+02    1.8696358E+06   -1.0126107E+04   -8.7514406E+03    1.8696358E+06    8.7514344E+03    1.8710104E+06
   -4.60   500.000    3.400E+02    1.7902771E+06   -9.7577981E+03   -8.4063948E+03    1.7902772E+06    8.4063894E+03    1.7916286E+06
   -4.59   500.000    3.394E+02    1.7114445E+06   -9.3786742E+03   -8.0511887E+03    1.7114445E+06    8.0511836E+03    1.7127720E+06
   -4.58   500.000    3.388E+02    1.6330027E+06   -8.9932439E+03   -7.6890466E+03    1.6330027E+06    7.6890416E+03    1.6343069E+06
   -4.57   500.000    3.382E+02    1.5547034E+06   -8.6035572E+03   -7.3208778E+03    1.5547034E+06    7.3208726E+03    1.5559861E+06
   -4.56   500.000    3.377E+02    1.4762595E+06   -8.2105874E+03   -6.9471291E+03    1.4762595E+06    6.9471235E+03    1.4775230E+06
   -4.55   500.000    3.372E+02    1.3974418E+06   -7.8155073E+03   -6.5693446E+03    1.3974418E+06    6.5693386E+03    1.3986880E+06
   -4.54   500.000    3.366E+02    1.3181680E+06   -7.4197789E+03   -6.1902875E+03    1.3181680E+06    6.1902809E+03    1.3193975E+06
   -4.53   500.000    3.362E+02    1.2385598E+06   -7.0240180E+03   -5.8125784E+03    1.2385598E+06    5.8125712E+03    1.2397713E+06
   -4.52   500.000    3.357E+02    1.1589547E+06   -6.6265718E+03   -5.4368465E+03    1.1589547E+06    5.4368389E+03    1.1601444E+06
   -4.51   500.000    3.353E+02    1.0798720E+06   -6.2229581E+03   -5.0606663E+03    1.0798720E+06    5.0606583E+03    1.0810343E+06
   -4.50   500.000    3.348E+02    1.0019459E+06   -5.8067446E+03   -4.6790141E+03    1.0019459E+06    4.6790059E+03    1.0030737E+06
   -4.49   500.000    3.344E+02    9.2584541E+05   -5.3716322E+03   -4.2861393E+03    9.2584547E+05    4.2861310E+03    9.2693096E+05
   -4.48   500.000    3.340E+02    8.5220140E+05   -4.9139482E+03   -3.8780887E+03    8.5220147E+05    3.8780806E+03    8.5323733E+05
   -4.47   500.000    3.337E+02    7.8155650E+05   -4.4346211E+03   -3.4548780E+03    7.8155656E+05    3.4548703E+03    7.8253630E+05
   -4.46   500.000    3.333E+02    7.1434442E+05   -3.9399097E+03   -3.0214499E+03    7.1434448E+05    3.0214427E+03    7.1526294E+05
   -4.45   500.000    3.330E+02    6.5089683E+05   -3.4406280E+03   -2.5870533E+03    6.5089689E+05    2.5870468E+03    6.5175047E+05
   -4.44   500.000    3.326E+02    5.9146779E+05   -2.9501846E+03   -2.1633411E+03    5.9146785E+05    2.1633355E+03    5.9225469E+05
   -4.43   500.000    3.323E+02    5.3626283E+05   -2.4821890E+03   -1.7619931E+03    5.3626288E+05    1.7619885E+03    5.3698308E+05
   -4.42   500.000    3.319E+02    4.8546104E+05   -2.0484331E+03   -1.3927496E+03    4.8546109E+05    1.3927459E+03    4.8611677E+05
   -4.41   500.000    3.316E+02    4.3922416E+05   -1.6577352E+03   -1.0623804E+03    4.3922421E+05    1.0623777E+03    4.3981956E+05
   -4.40   500.000    3.313E+02    3.9769293E+05   -1.3156697E+03   -7.7459648E+02    3.9769297E+05    7.7459460E+02    3.9823404E+05
   -4.39   500.000    3.309E+02    3.6097477E+05   -1.0248820E+03   -5.3054681E+02    3.6097481E+05    5.3054563E+02    3.6146914E+05
   -4.38   500.000    3.306E+02    3.2912715E+05   -7.8562599E+02   -3.2948579E+02    3.2912719E+05    3.2948515E+02    3.2958333E+05
   -4.37   500.000    3.302E+02    3.0213956E+05   -5.9629464E+02   -1.6935593E+02    3.0213959E+05    1.6935564E+02    3.0256653E+05
   -4.36   500.000    3.298E+02    2.7991596E+05   -4.5388657E+02   -4.7233742E+01    2.7991599E+05    4.7233615E+01    2.8032264E+05
   -4.35   500.000    3.295E+02    2.6226046E+05   -3.5443383E+02    4.0306282E+01    2.6226049E+05   -4.0306407E+01    2.6265523E+05
   -4.34   500.000    3.290E+02    2.4886957E+05   -2.9339867E+02    9.6870907E+01    2.4886959E+05   -9.6871174E+01    2.4925986E+05
   -4.33   500.000    3.286E+02    2.3933482E+05   -2.6599214E+02    1.2599617E+02    2.3933484E+05   -1.2599669E+02    2.3972683E+05
   -4.32   500.000    3.281E+02    2.3315785E+05   -2.6736650E+02    1.3101136E+02    2.3315787E+05   -1.3101221E+02    2.3355624E+05
   -4.31   500.000    3.276E+02    2.2977763E+05   -2.9270107E+02    1.1501874E+02    2.2977765E+05   -1.1501996E+02    2.3018537E+05
   -4.30   500.000    3.270E+02    2.2860714E+05   -3.3727127E+02    8.0927516E+01    2.2860716E+05   -8.0929120E+01    2.2902535E+05
   -4.29   500.000    3.264E+02    2.2907494E+05   -3.9658705E+02    3.1472555E+01    2.2907495E+05   -3.1474526E+01    2.2950301E+05
   -4.28   500.000    3.257E+02    2.3066588E+05   -4.6660409E+02   -3.0800035E+01    2.3066589E+05    3.0797738E+01    2.3110169E+05
   -4.27   500.000    3.250E+02    2.3295484E+05   -5.4392163E+02   -1.0354416E+02    2.3295485E+05    1.0354160E+02    2.3339523E+05
   -4.26   500.000    3.242E+02    2.3562776E+05   -6.2586342E+02   -1.8458488E+02    2.3562777E+05    1.8458213E+02    2.3606905E+05
   -4.25   500.000    3.233E+02    2.3848645E+05   -7.1041476E+02   -2.7187060E+02    2.3848646E+05    2.7186775E+02    2.3892500E+05
   -4.24   500.000    3.224E+02    2.4143675E+05   -7.9611180E+02   -3.6350237E+02    2.4143676E+05    3.6349950E+02    2.4186937E+05
   -4.23   500.000    3.214E+02    2.4446304E+05   -8.8206453E+02   -4.5796877E+02    2.4446305E+05    4.5796599E+02    2.4488715E+05
   -4.22   500.000    3.204E+02    2.4759473E+05   -9.6826737E+02   -5.5465884E+02    2.4759474E+05    5.5465625E+02    2.4800835E+05
   -4.21   500.000    3.192E+02    2.5087162E+05   -1.0561914E+03   -6.5457605E+02    2.5087163E+05    6.5457372E+02    2.5127324E+05
   -4.20   500.000    3.180E+02    2.5431404E+05   -1.1494206E+03   -7.6098734E+02    2.5431405E+05    7.6098535E+02    2.5470249E+05
   -4.19   500.000    3.167E+02    2.5790173E+05   -1.2539179E+03   -8.7961555E+02    2.5790174E+05    8.7961397E+02    2.5827605E+05
   -4.18   500.000    3.153E+02    2.6156260E+05   -1.3775177E+03   -1.0180304E+03    2.6156261E+05    1.0180293E+03    2.6192209E+05
   -4.17   500.000    3.138E+02    2.6517075E+05   -1.5285027E+03   -1.1841577E+03    2.6517075E+05    1.1841570E+03    2.6551510E+05
   -4.16   500.000    3.121E+02    2.6855234E+05   -1.7135455E+03   -1.3842222E+03    2.6855234E+05    1.3842219E+03    2.6888167E+05
   -4.15   500.000    3.103E+02    2.7149795E+05   -1.9356587E+03   -1.6207617E+03    2.7149796E+05    1.6207619E+03    2.7181285E+05
   -4.14   500.000    3.084E+02    2.7378045E+05   -2.1928734E+03   -1.8913963E+03    2.7378046E+05    1.8913968E+03    2.7408193E+05
   -4.13   500.000    3.063E+02    2.7517691E+05   -2.4781092E+03   -2.1887668E+03    2.7517692E+05    2.1887676E+03    2.7546626E+05
   -4.12   500.000    3.040E+02    2.7549250E+05   -2.7802477E+03   -2.5016307E+03    2.7549251E+05    2.5016316E+03    2.7577113E+05
   -4.11   500.000    3.015E+02    2.7458366E+05   -3.0860318E+03   -2.8167322E+03    2.7458367E+05    2.8167331E+03    2.7485297E+05
   -4.10   500.000    2.988E+02    2.7237802E+05   -3.3822338E+03   -3.1209142E+03    2.7237803E+05    3.1209151E+03    2.7263935E+05
   -4.09   500.000    2.958E+02    2.6888894E+05   -3.6575872E+03   -3.4029933E+03    2.6888895E+05    3.4029940E+03    2.6914354E+05
   -4.08   500.000    2.927E+02    2.6422318E+05   -3.9041582E+03   -3.6550945E+03    2.6422319E+05    3.6550950E+03    2.6447225E+05
   -4.07   500.000    2.894E+02    2.5858084E+05   -4.1180234E+03   -3.8733151E+03    2.5858084E+05    3.8733153E+03    2.5882555E+05
   -4.06   500.000    2.859E+02    2.5224675E+05   -4.2992484E+03   -4.0577003E+03    2.5224676E+05    4.0577001E+03    2.5248830E+05
   -4.05   500.000    2.823E+02    2.4557348E+05   -4.4512331E+03   -4.2115820E+03    2.4557348E+05    4.2115815E+03    2.4581313E+05
   -4.04   500.000    2.785E+02    2.3895680E+05   -4.5795627E+03   -4.3404164E+03    2.3895681E+05    4.3404156E+03    2.3919595E+05
   -4.03   500.000    2.746E+02    2.3280612E+05   -4.6906059E+03   -4.4503655E+03    2.3280612E+05    4.4503644E+03    2.3304636E+05
   -4.02   500.000    2.707E+02    2.2751328E+05   -4.7901955E+03   -4.5469715E+03    2.2751328E+05    4.5469702E+03    2.2775651E+05
   -4.01   500.000    2.667E+02    2.2342392E+05   -4.8827365E+03   -4.6342818E+03    2.2342393E+05    4.6342804E+03    2.2367238E+05
   -4.00   500.000    2.626E+02    2.2081494E+05   -4.9709700E+03   -4.7146523E+03    2.2081494E+05    4.7146508E+03    2.2107126E+05
   -3.99   500.000    2.585E+02    2.1988026E+05   -5.0563898E+03   -4.7892202E+03    2.1988027E+05    4.7892187E+03    2.2014744E+05
   -3.98   500.000    2.544E+02    2.2072538E+05   -5.1400807E+03   -4.8588019E+03    2.2072539E+05    4.8588005E+03    2.2100667E+05
   -3.97   500.000    2.502E+02    2.2336952E+05   -5.2236190E+03   -4.9248416E+03    2.2336952E+05    4.9248402E+03    2.2366830E+05
   -3.96   500.000    2.461E+02    2.2775378E+05   -5.3097008E+03   -4.9900725E+03    2.2775378E+05    4.9900712E+03    2.2807341E+05
   -3.95   500.000    2.419E+02    2.3375408E+05   -5.4023127E+03   -5.0587044E+03    2.3375408E+05    5.0587031E+03    2.3409769E+05
   -3.94   500.000    2.377E+02    2.4119808E+05   -5.5064324E+03   -5.1361336E+03    2.4119808E+05    5.1361324E+03    2.4156838E+05
   -3.93   500.000    2.335E+02    2.4988586E+05   -5.6273882E+03   -5.2283073E+03    2.4988586E+05    5.2283062E+03    2.5028494E+05
   -3.92   500.000    2.293E+02    2.5961346E+05   -5.7700723E+03   -5.3409328E+03    2.5961346E+05    5.3409318E+03    2.6004260E+05
   -3.91   500.000    2.250E+02    2.7019711E+05   -5.9382068E+03   -5.4787158E+03    2.7019711E+05    5.4787148E+03    2.7065660E+05
   -3.90   500.000    2.207E+02    2.8149511E+05   -6.1338093E+03   -5.6447553E+03    2.8149511E+05    5.6447545E+03    2.8198416E+05
   -3.89   500.000    2.163E+02    2.9342374E+05   -6.3569280E+03   -5.8401544E+03    2.9342374E+05    5.8401537E+03    2.9394051E+05
   -3.88   500.000    2.120E+02    3.0596460E+05   -6.6056410E+03   -6.0638547E+03    3.0596459E+05    6.0638541E+03    3.0650638E+05
   -3.87   500.000    2.077E+02    3.1916189E+05   -6.8762842E+03   -6.3126937E+03    3.1916188E+05    6.3126932E+03    3.1972547E+05
   -3.86   500.000    2.034E+02    3.3311004E+05   -7.1638709E+03   -6.5816966E+03    3.3311003E+05    6.5816962E+03    3.3369220E+05
   -3.85   500.000    1.992E+02    3.4793255E+05   -7.4626862E+03   -6.8646275E+03    3.4793254E+05    6.8646272E+03    3.4853060E+05
   -3.84   500.000    1.950E+02    3.6375381E+05   -7.7670369E+03   -7.1548014E+03    3.6375379E+05    7.1548011E+03    3.6436603E+05
   -3.83   500.000    1.910E+02    3.8066617E+05   -8.0720986E+03   -7.4460867E+03    3.8066616E+05    7.4460862E+03    3.8129217E+05
   -3.82   500.000    1.870E+02    3.9869702E+05   -8.3747322E+03   -7.7339389E+03    3.9869701E+05    7.7339382E+03    3.9933780E+05
   -3.81   500.000    1.831E+02    4.1778261E+05   -8.6740887E+03   -8.0162339E+03    4.1778259E+05    8.0162330E+03    4.1844045E+05
   -3.80   500.000    1.794E+02    4.3775655E+05   -8.9718027E+03   -8.2936527E+03    4.3775653E+05    8.2936515E+03    4.3843468E+05
   -3.79   500.000    1.759E+02    4.5835799E+05   -9.2716277E+03   -8.5694327E+03    4.5835797E+05    8.5694310E+03    4.5906017E+05
   -3.78   500.000    1.725E+02    4.7925778E+05   -9.5784687E+03   -8.8484197E+03    4.7925777E+05    8.8484175E+03    4.7998782E+05
   -3.77   500.000    1.692E+02    5.0009310E+05   -9.8968929E+03   -9.1355217E+03    5.0009309E+05    9.1355190E+03    5.0085446E+05
   -3.76   500.000    1.662E+02    5.2049704E+05   -1.0229347E+04   -9.4338332E+03    5.2049703E+05    9.4338299E+03    5.2129254E+05
   -3.75   500.000    1.633E+02    5.4011244E+05   -1.0574430E+04   -9.7428452E+03    5.4011242E+05    9.7428413E+03    5.4094401E+05
   -3.74   500.000    1.607E+02    5.5858915E+05   -1.0925695E+04   -1.0057251E+04    5.5858913E+05    1.0057247E+04    5.5945758E+05
   -3.73   500.000    1.582E+02    5.7557555E+05   -1.1271474E+04   -1.0366860E+04    5.7557554E+05    1.0366855E+04    5.7648015E+05
   -3.72   500.000    1.558E+02    5.9072169E+05   -1.1596167E+04   -1.0657976E+04    5.9072167E+05    1.0657970E+04    5.9165986E+05
   -3.71   500.000    1.537E+02    6.0370814E+05   -1.1883024E+04   -1.0916203E+04    6.0370812E+05    1.0916197E+04    6.0467494E+05
   -3.70   500.000    1.517E+02    6.1430102E+05   -1.2117849E+04   -1.1130028E+04    6.1430100E+05    1.1130022E+04    6.1528882E+05
   -3.69   500.000    1.499E+02    6.2241552E+05   -1.2292414E+04   -1.1293946E+04    6.2241550E+05    1.1293940E+04    6.2341397E+05
   -3.68   500.000    1.482E+02    6.2815854E+05   -1.2406134E+04   -1.1409747E+04    6.2815852E+05    1.1409742E+04    6.2915491E+05
   -3.67   500.000    1.466E+02    6.3182273E+05   -1.2465107E+04   -1.1485153E+04    6.3182270E+05    1.1485148E+04    6.3280266E+05
   -3.66   500.000    1.452E+02    6.3382216E+05   -1.2478749E+04   -1.1530138E+04    6.3382214E+05    1.1530133E+04    6.3477075E+05
   -3.65   500.000    1.438E+02    6.3458496E+05   -1.2455405E+04   -1.1552364E+04    6.3458494E+05    1.1552360E+04    6.3548798E+05
   -3.64   500.000    1.425E+02    6.3443783E+05   -1.2398732E+04   -1.1553592E+04    6.3443781E+05    1.1553589E+04    6.3528295E+05
   -3.63   500.000    1.413E+02    6.3352207E+05   -1.2306199E+04   -1.1528385E+04    6.3352205E+05    1.1528383E+04    6.3429986E+05
   -3.62   500.000    1.402E+02    6.3176876E+05   -1.2170060E+04   -1.1465445E+04    6.3176875E+05    1.1465443E+04    6.3247336E+05
   -3.61   500.000    1.391E+02    6.2893894E+05   -1.1980233E+04   -1.1350945E+04    6.2893893E+05    1.1350944E+04    6.2956822E+05
   -3.60   500.000    1.381E+02    6.2471288E+05   -1.1728162E+04   -1.1172815E+04    6.2471287E+05    1.1172815E+04    6.2526822E+05
   -3.59   500.000    1.371E+02    6.1879917E+05   -1.1410643E+04   -1.0924900E+04    6.1879916E+05    1.0924900E+04    6.1928490E+05
   -3.58   500.000    1.361E+02    6.1103223E+05   -1.1032727E+04   -1.0610031E+04    6.1103222E+05    1.0610032E+04    6.1145492E+05
   -3.57   500.000    1.351E+02    6.0143568E+05   -1.0608871E+04   -1.0241209E+04    6.0143567E+05    1.0241211E+04    6.0180333E+05
   -3.56   500.000    1.342E+02    5.9024265E+05   -1.0161836E+04   -9.8404122E+03    5.9024265E+05    9.8404143E+03    5.9056407E+05
   -3.55   500.000    1.333E+02    5.7787673E+05   -9.7194303E+03   -9.4352025E+03    5.7787673E+05    9.4352050E+03    5.7816096E+05
   -3.54   500.000    1.324E+02    5.6490450E+05   -9.3100125E+03   -9.0540715E+03    5.6490450E+05    9.0540744E+03    5.6516044E+05
   -3.53   500.000    1.315E+02    5.5197216E+05   -8.9581328E+03   -8.7219470E+03    5.5197216E+05    8.7219500E+03    5.5220835E+05
   -3.52   500.000    1.306E+02    5.3973759E+05   -8.6816415E+03   -8.4571986E+03    5.3973760E+05    8.4572017E+03    5.3996204E+05
   -3.51   500.000    1.297E+02    5.2880678E+05   -8.4909504E+03   -8.2708349E+03    5.2880678E+05    8.2708381E+03    5.2902690E+05
   -3.50   500.000    1.288E+02    5.1968112E+05   -8.3902876E+03   -8.1677240E+03    5.1968112E+05    8.1677270E+03    5.1990369E+05
   -3.49   500.000    1.279E+02    5.1271882E+05   -8.3800781E+03   -8.1489578E+03    5.1271882E+05    8.1489607E+03    5.1294994E+05
   -3.48   500.000    1.269E+02    5.0810993E+05   -8.4592985E+03   -8.2141928E+03    5.0810993E+05    8.2141953E+03    5.0835504E+05
   -3.47   500.000    1.260E+02    5.0586316E+05   -8.6268666E+03   -8.3630078E+03    5.0586317E+05    8.3630099E+03    5.0612703E+05
   -3.46   500.000    1.251E+02    5.0580421E+05   -8.8817314E+03   -8.5949327E+03    5.0580421E+05    8.5949344E+03    5.0609101E+05
   -3.45   500.000    1.241E+02    5.0758902E+05   -9.2220261E+03   -8.9085119E+03    5.0758903E+05    8.9085131E+03    5.0790254E+05
   -3.44   500.000    1.232E+02    5.1073782E+05   -9.6441141E+03   -9.3002481E+03    5.1073782E+05    9.3002488E+03    5.1108168E+05
   -3.43   500.000    1.222E+02    5.1469299E+05   -1.0142357E+04   -9.7642912E+03    5.1469299E+05    9.7642914E+03    5.1507105E+05
   -3.42   500.000    1.213E+02    5.1889690E+05   -1.0709983E+04   -1.0293291E+04    5.1889690E+05    1.0293291E+04    5.1931359E+05
   -3.41   500.000    1.203E+02    5.2287608E+05   -1.1340774E+04   -1.0880162E+04    5.2287608E+05    1.0880161E+04    5.2333669E+05
   -3.40   500.000    1.193E+02    5.2631271E+05   -1.2030712E+04   -1.1519912E+04    5.2631271E+05    1.1519911E+04    5.2682351E+05
   -3.39   500.000    1.183E+02    5.2908577E+05   -1.2778530E+04   -1.2210459E+04    5.2908576E+05    1.2210458E+04    5.2965383E+05
   -3.38   500.000    1.173E+02    5.3127254E+05   -1.3584364E+04   -1.2951586E+04    5.3127253E+05    1.2951586E+04    5.3190531E+05
   -3.37   500.000    1.163E+02    5.3311302E+05   -1.4446370E+04   -1.3741833E+04    5.3311302E+05    1.3741832E+04    5.3381755E+05
   -3.36   500.000    1.153E+02    5.3494885E+05   -1.5355927E+04   -1.4573875E+04    5.3494884E+05    1.4573875E+04    5.3573090E+05
   -3.35   500.000    1.143E+02    5.3715272E+05   -1.6292781E+04   -1.5429674E+04    5.3715271E+05    1.5429673E+04    5.3801582E+05
   -3.34   500.000    1.133E+02    5.4006279E+05   -1.7221738E+04   -1.6276973E+04    5.4006278E+05    1.6276972E+04    5.4100755E+05
   -3.33   500.000    1.123E+02    5.4393241E+05   -1.8092450E+04   -1.7068700E+04    5.4393240E+05    1.7068700E+04    5.4495615E+05
   -3.32   500.000    1.112E+02    5.4890064E+05   -1.8843118E+04   -1.7746182E+04    5.4890063E+05    1.7746182E+04    5.4999756E+05
   -3.31   500.000    1.102E+02    5.5498611E+05   -1.9407942E+04   -1.8246140E+04    5.5498609E+05    1.8246140E+04    5.5614790E+05
   -3.30   500.000    1.091E+02    5.6210336E+05   -1.9726988E+04   -1.8510290E+04    5.6210334E+05    1.8510289E+04    5.6332004E+05
   -3.29   500.000    1.080E+02    5.7009827E+05   -1.9756365E+04   -1.8495522E+04    5.7009825E+05    1.8495521E+04    5.7135910E+05
   -3.28   500.000    1.069E+02    5.7879550E+05   -1.9476387E+04   -1.8182302E+04    5.7879548E+05    1.8182301E+04    5.8008957E+05
   -3.27   500.000    1.059E+02    5.8804825E+05   -1.8895829E+04   -1.7579268E+04    5.8804823E+05    1.7579267E+04    5.8936479E+05
   -3.26   500.000    1.048E+02    5.9777996E+05   -1.8051335E+04   -1.6722887E+04    5.9777993E+05    1.6722886E+04    5.9910838E+05
   -3.25   500.000    1.037E+02    6.0800938E+05   -1.7002169E+04   -1.5672262E+04    6.0800936E+05    1.5672260E+04    6.0933927E+05
   -3.24   500.000    1.026E+02    6.1885460E+05   -1.5821606E+04   -1.4500367E+04    6.1885458E+05    1.4500364E+04    6.2017582E+05
   -3.23   500.000    1.015E+02    6.3051543E+05   -1.4586973E+04   -1.3283846E+04    6.3051541E+05    1.3283843E+04    6.3181854E+05
   -3.22   500.000    1.004E+02    6.4323746E+05   -1.3370489E+04   -1.2093680E+04    6.4323744E+05    1.2093676E+04    6.4451424E+05
   -3.21   500.000    9.935E+01    6.5726289E+05   -1.2232633E+04   -1.0988527E+04    6.5726287E+05    1.0988523E+04    6.5850698E+05
   -3.20   500.000    9.826E+01    6.7277627E+05   -1.1218778E+04   -1.0011542E+04    6.7277625E+05    1.0011537E+04    6.7398349E+05
   -3.19   500.000    9.718E+01    6.8985472E+05   -1.0358859E+04   -9.1903285E+03    6.8985471E+05    9.1903224E+03    6.9102324E+05
   -3.18   500.000    9.610E+01    7.0843321E+05   -9.6689734E+03   -8.5388693E+03    7.0843320E+05    8.5388625E+03    7.0956330E+05
   -3.17   500.000    9.502E+01    7.2829205E+05   -9.1535882E+03   -8.0599774E+03    7.2829204E+05    8.0599698E+03    7.2938565E+05
   -3.16   500.000    9.393E+01    7.4906818E+05   -8.8072756E+03   -7.7471869E+03    7.4906817E+05    7.7471787E+03    7.5012826E+05
   -3.15   500.000    9.284E+01    7.7028615E+05   -8.6156819E+03   -7.5857629E+03    7.7028614E+05    7.5857541E+03    7.7131606E+05
   -3.14   500.000    9.174E+01    7.9140213E+05   -8.5561831E+03   -7.5533156E+03    7.9140212E+05    7.5533064E+03    7.9240499E+05
   -3.13   500.000    9.064E+01    8.1185477E+05   -8.5991555E+03   -7.6209692E+03    8.1185476E+05    7.6209597E+03    8.1283295E+05
   -3.12   500.000    8.952E+01    8.3111764E+05   -8.7107060E+03   -7.7559462E+03    8.3111763E+05    7.7559365E+03    8.3207239E+05
   -3.11   500.000    8.840E+01    8.4874741E+05   -8.8571414E+03   -7.9258505E+03    8.4874740E+05    7.9258408E+03    8.4967869E+05
   -3.10   500.000    8.726E+01    8.6442030E+05   -9.0106378E+03   -8.1041207E+03    8.6442029E+05    8.1041110E+03    8.6532681E+05
   -3.09   500.000    8.611E+01    8.7795001E+05   -9.1548270E+03   -8.2753855E+03    8.7795000E+05    8.2753760E+03    8.7882944E+05
   -3.08   500.000    8.494E+01    8.8928339E+05   -9.2886561E+03   -8.4391143E+03    8.8928338E+05    8.4391049E+03    8.9013292E+05
   -3.07   500.000    8.373E+01    8.9847656E+05   -9.4270937E+03   -8.6101792E+03    8.9847655E+05    8.6101700E+03    8.9929347E+05
   -3.06   500.000    8.250E+01    9.0565879E+05   -9.5980617E+03   -8.8157534E+03    9.0565878E+05    8.8157444E+03    9.0644109E+05
   -3.05   500.000    8.123E+01    9.1099426E+05   -9.8361251E+03   -9.0890883E+03    9.1099426E+05    9.0890795E+03    9.1174130E+05
   -3.04   500.000    7.992E+01    9.1464995E+05   -1.0174503E+04   -9.4617152E+03    9.1464995E+05    9.4617068E+03    9.1536274E+05
   -3.03   500.000    7.855E+01    9.1677363E+05   -1.0637451E+04   -9.9560679E+03    9.1677363E+05    9.9560597E+03    9.1745501E+05
   -3.02   500.000    7.713E+01    9.1748190E+05   -1.1234790E+04   -1.0580251E+04    9.1748190E+05    1.0580243E+04    9.1813644E+05
   -3.01   500.000    7.565E+01    9.1685612E+05   -1.1959525E+04   -1.1325863E+04    9.1685612E+05    1.1325855E+04    9.1748978E+05
   -3.00   500.000    7.410E+01    9.1494532E+05   -1.2788538E+04   -1.2168831E+04    9.1494532E+05    1.2168824E+04    9.1556502E+05
   -2.99   500.000    7.249E+01    9.1177645E+05   -1.3685633E+04   -1.3072553E+04    9.1177645E+05    1.3072547E+04    9.1238953E+05
   -2.98   500.000    7.080E+01    9.0737128E+05   -1.4606066E+04   -1.3992475E+04    9.0737127E+05    1.3992468E+04    9.0798487E+05
   -2.97   500.000    6.904E+01    9.0176575E+05   -1.5501919E+04   -1.4881464E+04    9.0176575E+05    1.4881459E+04    9.0238620E+05
   -2.96   500.000    6.721E+01    8.9502513E+05   -1.6328014E+04   -1.5695684E+04    8.9502512E+05    1.5695679E+04    8.9565745E+05
   -2.95   500.000    6.531E+01    8.8724938E+05   -1.7048043E+04   -1.6400613E+04    8.8724937E+05    1.6400608E+04    8.8789680E+05
   -2.94   500.000    6.334E+01    8.7856883E+05   -1.7640134E+04   -1.6976433E+04    8.7856882E+05    1.6976428E+04    8.7923253E+05
   -2.93   500.000    6.130E+01    8.6913508E+05   -1.8100435E+04   -1.7421382E+04    8.6913507E+05    1.7421378E+04    8.6981413E+05
   -2.92   500.000    5.920E+01    8.5911391E+05   -1.8443212E+04   -1.7751592E+04    8.5911390E+05    1.7751589E+04    8.5980552E+05
   -2.91   500.000    5.706E+01    8.4868331E+05   -1.8696808E+04   -1.7996815E+04    8.4868330E+05    1.7996812E+04    8.4938329E+05
   -2.90   500.000    5.487E+01    8.3803449E+05   -1.8896376E+04   -1.8192998E+04    8.3803447E+05    1.8192995E+04    8.3873785E+05
   -2.89   500.000    5.265E+01    8.2736967E+05   -1.9075700E+04   -1.8374057E+04    8.2736966E+05    1.8374053E+04    8.2807130E+05
   -2.88   500.000    5.041E+01    8.1689119E+05   -1.9260732E+04   -1.8565482E+04    8.1689118E+05    1.8565478E+04    8.1758643E+05
   -2.87   500.000    4.818E+01    8.0678021E+05   -1.9466521E+04   -1.8781422E+04    8.0678019E+05    1.8781417E+04    8.0746529E+05
   -2.86   500.000    4.596E+01    7.9716965E+05   -1.9697510E+04   -1.9025203E+04    7.9716964E+05    1.9025198E+04    7.9784194E+05
   -2.85   500.000    4.377E+01    7.8812044E+05   -1.9949805E+04   -1.9291815E+04    7.8812042E+05    1.9291810E+04    7.8877841E+05
   -2.84   500.000    4.163E+01    7.7961106E+05   -2.0213532E+04   -1.9570451E+04    7.7961105E+05    1.9570445E+04    7.8025413E+05
   -2.83   500.000    3.955E+01    7.7154676E+05   -2.0474070E+04   -1.9845820E+04    7.7154674E+05    1.9845814E+04    7.7217499E+05
   -2.82   500.000    3.755E+01    7.6378691E+05   -2.0712041E+04   -2.0098126E+04    7.6378689E+05    2.0098120E+04    7.6440081E+05
   -2.81   500.000    3.563E+01    7.5618132E+05   -2.0902845E+04   -2.0302512E+04    7.5618130E+05    2.0302506E+04    7.5678163E+05
   -2.80   500.000    3.381E+01    7.4860120E+05   -2.1016739E+04   -2.0429031E+04    7.4860118E+05    2.0429024E+04    7.4918889E+05
   -2.79   500.000    3.209E+01    7.4095295E+05   -2.1020144E+04   -2.0443867E+04    7.4095293E+05    2.0443861E+04    7.4152921E+05
   -2.78   500.000    3.047E+01    7.3317088E+05   -2.0878351E+04   -2.0312028E+04    7.3317087E+05    2.0312022E+04    7.3373719E+05
   -2.77   500.000    2.895E+01    7.2519510E+05   -2.0559534E+04   -2.0001385E+04    7.2519509E+05    2.0001380E+04    7.2575323E+05
   -2.76   500.000    2.752E+01    7.1694660E+05   -2.0039713E+04   -1.9487696E+04    7.1694659E+05    1.9487691E+04    7.1749860E+05
   -2.75   500.000    2.620E+01    7.0831047E+05   -1.9308007E+04   -1.8759885E+04    7.0831046E+05    1.8759881E+04    7.0885858E+05
   -2.74   500.000    2.497E+01    6.9913131E+05   -1.8371019E+04   -1.7824435E+04    6.9913130E+05    1.7824431E+04    6.9967789E+05
   -2.73   500.000    2.382E+01    6.8921835E+05   -1.7255023E+04   -1.6707522E+04    6.8921834E+05    1.6707519E+04    6.8976584E+05
   -2.72   500.000    2.276E+01    6.7835492E+05   -1.6004967E+04   -1.5453942E+04    6.7835491E+05    1.5453940E+04    6.7890593E+05
   -2.71   500.000    2.177E+01    6.6630941E+05   -1.4680245E+04   -1.4122799E+04    6.6630939E+05    1.4122797E+04    6.6686684E+05
   -2.70   500.000    2.085E+01    6.5284893E+05   -1.3348083E+04   -1.2780824E+04    6.5284892E+05    1.2780822E+04    6.5341618E+05
   -2.69   500.000    1.999E+01    6.3775990E+05   -1.2075781E+04   -1.1494627E+04    6.3775989E+05    1.1494626E+04    6.3834105E+05
   -2.68   500.000    1.920E+01    6.2087770E+05   -1.0922927E+04   -1.0323002E+04    6.2087769E+05    1.0323001E+04    6.2147762E+05
   -2.67   500.000    1.845E+01    6.0212223E+05   -9.9344862E+03   -9.3102026E+03    6.0212223E+05    9.3102023E+03    6.0274651E+05
   -2.66   500.000    1.776E+01    5.8153013E+05   -9.1356825E+03   -8.4810912E+03    5.8153012E+05    8.4810912E+03    5.8218471E+05
   -2.65   500.000    1.711E+01    5.5927267E+05   -8.5297394E+03   -7.8391686E+03    5.5927267E+05    7.8391687E+03    5.5996324E+05
   -2.64   500.000    1.649E+01    5.3565313E+05   -8.0993198E+03   -7.3682689E+03    5.3565312E+05    7.3682692E+03    5.3638417E+05
   -2.63   500.000    1.591E+01    5.1108507E+05   -7.8117327E+03   -7.0378981E+03    5.1108506E+05    7.0378985E+03    5.1185890E+05
   -2.62   500.000    1.536E+01    4.8605941E+05   -7.6268413E+03   -6.8110735E+03    4.8605940E+05    6.8110740E+03    4.8687517E+05
   -2.61   500.000    1.484E+01    4.6110780E+05   -7.5057223E+03   -6.6526713E+03    4.6110780E+05    6.6526718E+03    4.6196085E+05
   -2.60   500.000    1.433E+01    4.3676631E+05   -7.4179644E+03   -6.5361894E+03    4.3676631E+05    6.5361899E+03    4.3764808E+05
   -2.59   500.000    1.385E+01    4.1353952E+05   -7.3461206E+03   -6.4475401E+03    4.1353952E+05    6.4475407E+03    4.1443810E+05
   -2.58   500.000    1.338E+01    3.9186556E+05   -7.2868518E+03   -6.3855689E+03    3.9186556E+05    6.3855696E+03    3.9276685E+05
   -2.57   500.000    1.293E+01    3.7208505E+05   -7.2491705E+03   -6.3598735E+03    3.7208505E+05    6.3598742E+03    3.7297435E+05
   -2.56   500.000    1.249E+01    3.5441981E+05   -7.2506036E+03   -6.3868447E+03    3.5441981E+05    6.3868454E+03    3.5528357E+05
   -2.55   500.000    1.207E+01    3.3896723E+05   -7.3121295E+03   -6.4847973E+03    3.3896723E+05    6.4847981E+03    3.3979456E+05
   -2.54   500.000    1.165E+01    3.2571288E+05   -7.4527212E+03   -6.6689406E+03    3.2571288E+05    6.6689416E+03    3.2649666E+05
   -2.53   500.000    1.125E+01    3.1455914E+05   -7.6843548E+03   -6.9469311E+03    3.1455913E+05    6.9469323E+03    3.1529656E+05
   -2.52   500.000    1.086E+01    3.0536241E+05   -8.0083317E+03   -7.3157328E+03    3.0536240E+05    7.3157342E+03    3.0605500E+05
   -2.51   500.000    1.048E+01    2.9796885E+05   -8.4134887E+03   -7.7602781E+03    2.9796885E+05    7.7602798E+03    2.9862206E+05
   -2.50   500.000    1.011E+01    2.9223887E+05   -8.8763535E+03   -8.2539416E+03    2.9223886E+05    8.2539438E+03    2.9286128E+05
   -2.49   500.000    9.750E+00    2.8805404E+05   -9.3627345E+03   -8.7603128E+03    2.8805403E+05    8.7603153E+03    2.8865645E+05
   -2.48   500.000    9.405E+00    2.8530543E+05   -9.8299547E+03   -9.2354923E+03    2.8530542E+05    9.2354952E+03    2.8589989E+05
   -2.47   500.000    9.071E+00    2.8386683E+05   -1.0229131E+04   -9.6303465E+03    2.8386682E+05    9.6303498E+03    2.8446561E+05
   -2.46   500.000    8.748E+00    2.8356035E+05   -1.0507546E+04   -9.8927883E+03    2.8356034E+05    9.8927918E+03    2.8417510E+05
   -2.45   500.000    8.436E+00    2.8412448E+05   -1.0611864E+04   -9.9708720E+03    2.8412446E+05    9.9708758E+03    2.8476546E+05
   -2.44   500.000    8.134E+00    2.8519523E+05   -1.0493221E+04   -9.8177255E+03    2.8519521E+05    9.8177293E+03    2.8587071E+05
   -2.43   500.000    7.841E+00    2.8630946E+05   -1.0114463E+04   -9.3986401E+03    2.8630944E+05    9.3986438E+03    2.8702527E+05
   -2.42   500.000    7.557E+00    2.8693362E+05   -9.4583625E+03   -8.6991169E+03    2.8693361E+05    8.6991204E+03    2.8769286E+05
   -2.41   500.000    7.282E+00    2.8651381E+05   -8.5340835E+03   -7.7311739E+03    2.8651380E+05    7.7311771E+03    2.8731671E+05
   -2.40   500.000    7.016E+00    2.8453541E+05   -7.3789499E+03   -6.5349342E+03    2.8453539E+05    6.5349371E+03    2.8537941E+05
   -2.39   500.000    6.758E+00    2.8057764E+05   -6.0540466E+03   -5.1740419E+03    2.8057762E+05    5.1740443E+03    2.8145763E+05
   -2.38   500.000    6.510E+00    2.7435119E+05   -4.6348279E+03   -3.7261028E+03    2.7435117E+05    3.7261048E+03    2.7525989E+05
   -2.37   500.000    6.272E+00    2.6571445E+05   -3.2000022E+03   -2.2714700E+03    2.6571443E+05    2.2714716E+03    2.6664296E+05
   -2.36   500.000    6.044E+00    2.5467242E+05   -1.8221541E+03   -8.8387008E+02    2.5467240E+05    8.8387127E+02    2.5561069E+05
   -2.35   500.000    5.826E+00    2.4136588E+05   -5.6189269E+02    3.7535368E+02    2.4136586E+05   -3.7535283E+02    2.4230310E+05
   -2.34   500.000    5.621E+00    2.2605723E+05    5.3479995E+02    1.4597794E+03    2.2605722E+05   -1.4597789E+03    2.2698220E+05
   -2.33   500.000    5.428E+00    2.0911430E+05    1.4373971E+03    2.3386923E+03    2.0911428E+05   -2.3386920E+03    2.1001558E+05
   -2.32   500.000    5.247E+00    1.9098921E+05    2.1308581E+03    2.9971883E+03    1.9098919E+05   -2.9971881E+03    1.9185552E+05
   -2.31   500.000    5.081E+00    1.7218960E+05    2.6149846E+03    3.4356839E+03    1.7218959E+05   -3.4356839E+03    1.7301028E+05
   -2.30   500.000    4.929E+00    1.5324225E+05    2.9027619E+03    3.6683984E+03    1.5324224E+05   -3.6683984E+03    1.5400788E+05
   -2.29   500.000    4.792E+00    1.3465328E+05    3.0175722E+03    3.7205975E+03    1.3465327E+05   -3.7205976E+03    1.3535630E+05
   -2.28   500.000    4.669E+00    1.1687113E+05    2.9896364E+03    3.6249133E+03    1.1687112E+05   -3.6249134E+03    1.1750640E+05
   -2.27   500.000    4.561E+00    1.0025811E+05    2.8522853E+03    3.4173663E+03    1.0025810E+05   -3.4173665E+03    1.0082318E+05
   -2.26   500.000    4.467E+00    8.5074053E+04    2.6385956E+03    3.1336971E+03    8.5074046E+04   -3.1336972E+03    8.5569147E+04
   -2.25   500.000    4.386E+00    7.1472862E+04    2.3787290E+03    2.8064247E+03    7.1472857E+04   -2.8064248E+03    7.1900552E+04
   -2.24   500.000    4.316E+00    5.9510344E+04    2.0981356E+03    2.4628557E+03    5.9510340E+04   -2.4628558E+03    5.9875060E+04
   -2.23   500.000    4.258E+00    4.9160138E+04    1.8166567E+03    2.1240979E+03    4.9160134E+04   -2.1240980E+03    4.9467575E+04
   -2.22   500.000    4.209E+00    4.0333904E+04    1.5484373E+03    1.8049841E+03    4.0333901E+04   -1.8049842E+03    4.0590448E+04
   -2.21   500.000    4.169E+00    3.2902177E+04    1.3024604E+03    1.5146877E+03    3.2902174E+04   -1.5146878E+03    3.3114402E+04
   -2.20   500.000    4.135E+00    2.6713176E+04    1.0834566E+03    1.2577487E+03    2.6713174E+04   -1.2577488E+03    2.6887466E+04
   -2.19   500.000    4.107E+00    2.1608006E+04    8.9294915E+02    1.0352431E+03    2.1608004E+04   -1.0352432E+03    2.1750298E+04
   -2.18   500.000    4.085E+00    1.7431740E+04    7.3025294E+02    8.4589143E+02    1.7431739E+04   -8.4589149E+02    1.7547377E+04
   -2.17   500.000    4.066E+00    1.4040635E+04    5.9331787E+02    6.8698869E+02    1.4040634E+04   -6.8698875E+02    1.4134304E+04
   -2.16   500.000    4.051E+00    1.1306159E+04    4.7937611E+02    5.5511409E+02    1.1306158E+04   -5.5511413E+02    1.1381896E+04
   -2.15   500.000    4.038E+00    9.1166491E+03    3.8539831E+02    4.4662669E+02    9.1166485E+03   -4.4662673E+02    9.1778769E+03
   -2.14   500.000    4.027E+00    7.3773616E+03    3.0838867E+02    3.5798283E+02    7.3773612E+03   -3.5798286E+02    7.4269553E+03
   -2.13   500.000    4.017E+00    6.0095528E+03    2.4555656E+02    2.8591754E+02    6.0095524E+03   -2.8591756E+02    6.0499134E+03
   -2.12   500.000    4.008E+00    4.9490655E+03    1.9440082E+02    2.2753053E+02    4.9490653E+03   -2.2753055E+02    4.9821950E+03
   -2.11   500.000    3.999E+00    4.1447461E+03    1.5273648E+02    1.8030983E+02    4.1447460E+03   -1.8030984E+02    4.1723194E+03
   -2.10   500.000    3.991E+00    3.5569028E+03    1.1868607E+02    1.4211770E+02    3.5569028E+03   -1.4211772E+02    3.5803344E+03
   -2.09   500.000    3.982E+00    3.1559273E+03    9.0651228E+01    1.1115614E+02    3.1559273E+03   -1.1115616E+02    3.1764322E+03
   -2.08   500.000    3.972E+00    2.9211427E+03    6.7274916E+01    8.5923108E+01    2.9211429E+03   -8.5923122E+01    2.9397911E+03
   -2.07   500.000    3.961E+00    2.8398988E+03    4.7400485E+01    6.5166536E+01    2.8398990E+03   -6.5166550E+01    2.8576651E+03
   -2.06   500.000    3.947E+00    2.9069062E+03    3.0031451E+01    4.7839998E+01    2.9069065E+03   -4.7840012E+01    2.9247151E+03
   -2.05   500.000    3.931E+00    3.1237831E+03    1.4293982E+01    3.3062105E+01    3.1237836E+03   -3.3062121E+01    3.1425517E+03
   -2.04   500.000    3.912E+00    3.4987654E+03   -5.9676292E-01    2.0080578E+01    3.4987660E+03   -2.0080596E+01    3.5194434E+03
   -2.03   500.000    3.888E+00    4.0465077E+03   -1.5365650E+01    8.2413410E+00    4.0465085E+03   -8.2413610E+00    4.0701155E+03
   -2.02   500.000    3.859E+00    4.7878788E+03   -3.0701153E+01   -3.0371540E+00    4.7878799E+03    3.0371313E+00    4.8155439E+03
   -2.01   500.000    3.823E+00    5.7496164E+03   -4.7272251E+01   -1.4284076E+01    5.7496177E+03    1.4284050E+01    5.7826059E+03
   -2.00   500.000    3.779E+00    6.9636729E+03   -6.5736807E+01   -2.5990214E+01    6.9636745E+03    2.5990186E+01    7.0034211E+03
   -1.99   500.000    3.726E+00    8.4660578E+03   -8.6738840E+01   -3.8614805E+01    8.4660597E+03    3.8614776E+01    8.5141838E+03
   -1.98   500.000    3.662E+00    1.0294981E+04   -1.1089153E+02   -5.2583840E+01    1.0294983E+04    5.2583812E+01    1.0353291E+04
   -1.97   500.000    3.586E+00    1.2488158E+04   -1.3874295E+02   -6.8278511E+01    1.2488161E+04    6.8278486E+01    1.2558626E+04
   -1.96   500.000    3.495E+00    1.5079296E+04   -1.7072264E+02   -8.6013204E+01    1.5079299E+04    8.6013188E+01    1.5164009E+04
   -1.95   500.000    3.388E+00    1.8094005E+04   -2.0707088E+02   -1.0600431E+02    1.8094009E+04    1.0600431E+02    1.8195075E+04
   -1.94   500.000    3.266E+00    2.1545765E+04   -2.4775730E+02   -1.2833414E+02    2.1545769E+04    1.2833417E+02    2.1665192E+04
   -1.93   500.000    3.126E+00    2.5432876E+04   -2.9240320E+02   -1.5291799E+02    2.5432882E+04    1.5291806E+02    2.5572367E+04
   -1.92   500.000    2.970E+00    2.9737549E+04   -3.4022703E+02   -1.7948463E+02    2.9737555E+04    1.7948477E+02    2.9898297E+04
   -1.91   500.000    2.797E+00    3.4428112E+04   -3.9003445E+02   -2.0758000E+02    3.4428119E+04    2.0758021E+02    3.4610573E+04
   -1.90   500.000    2.611E+00    3.9464808E+04   -4.4026793E+02   -2.3659777E+02    3.9464815E+04    2.3659809E+02    3.9668485E+04
   -1.89   500.000    2.414E+00    4.4808740E+04   -4.8911862E+02   -2.6583233E+02    4.4808748E+04    2.6583277E+02    4.5032034E+04
   -1.88   500.000    2.207E+00    5.0432698E+04   -5.3468978E+02   -2.9454298E+02    5.0432706E+04    2.9454354E+02    5.0672853E+04
   -1.87   500.000    1.994E+00    5.6332031E+04   -5.7519259E+02   -3.2201937E+02    5.6332039E+04    3.2202008E+02    5.6585212E+04
   -1.86   500.000    1.779E+00    6.2533805E+04   -6.0915423E+02   -3.4764623E+02    6.2533813E+04    3.4764706E+02    6.2795321E+04
   -1.85   500.000    1.564E+00    6.9102921E+04   -6.3561689E+02   -3.7097178E+02    6.9102930E+04    3.7097272E+02    6.9367575E+04
   -1.84   500.000    1.353E+00    7.6144518E+04   -6.5429860E+02   -3.9178041E+02    7.6144527E+04    3.9178143E+02    7.6407045E+04
   -1.83   500.000    1.146E+00    8.3802407E+04   -6.6567512E+02   -4.1015361E+02    8.3802416E+04    4.1015465E+02    8.4057938E+04
   -1.82   500.000    9.468E-01    9.2253498E+04   -6.7094128E+02   -4.2648947E+02    9.2253507E+04    4.2649047E+02    9.2497959E+04
   -1.81   500.000    7.560E-01    1.0169825E+05   -6.7183583E+02   -4.4145482E+02    1.0169826E+05    4.4145571E+02    1.0192864E+05
   -1.80   500.000    5.745E-01    1.1234747E+05   -6.7036013E+02   -4.5587025E+02    1.1234749E+05    4.5587098E+02    1.1256198E+05
   -1.79   500.000    4.027E-01    1.2440628E+05   -6.6846447E+02   -4.7055955E+02    1.2440629E+05    4.7056004E+02    1.2460419E+05
   -1.78   500.000    2.404E-01    1.3805676E+05   -6.6778782E+02   -4.8621104E+02    1.3805677E+05    4.8621122E+02    1.3823835E+05
   -1.77   500.000    8.714E-02    1.5344160E+05   -6.6951030E+02   -5.0328766E+02    1.5344162E+05    5.0328749E+02    1.5360784E+05
   -1.76   500.000   -5.793E-02    1.7065120E+05   -6.7432634E+02   -5.2199342E+02    1.7065122E+05    5.2199286E+02    1.7080355E+05
   -1.75   500.000   -1.958E-01    1.8971679E+05   -6.8249692E+02   -5.4227305E+02    1.8971680E+05    5.4227208E+02    1.8985703E+05
   -1.74   500.000   -3.278E-01    2.1061197E+05   -6.9391216E+02   -5.6380449E+02    2.1061199E+05    5.6380312E+02    2.1074210E+05
   -1.73   500.000   -4.549E-01    2.3326410E+05   -7.0810037E+02   -5.8594737E+02    2.3326412E+05    5.8594565E+02    2.3338627E+05
   -1.72   500.000   -5.784E-01    2.5757527E+05   -7.2415083E+02   -6.0763180E+02    2.5757529E+05    6.0762980E+02    2.5769181E+05
   -1.71   500.000   -6.994E-01    2.8345025E+05   -7.4056130E+02   -6.2720198E+02    2.8345027E+05    6.2719981E+02    2.8356362E+05
   -1.70   500.000   -8.189E-01    3.1082533E+05   -7.5505858E+02   -6.4225560E+02    3.1082534E+05    6.4225339E+02    3.1093815E+05
   -1.69   500.000   -9.377E-01    3.3968952E+05   -7.6446070E+02   -6.4953469E+02    3.3968953E+05    6.4953260E+02    3.3980446E+05
   -1.68   500.000   -1.057E+00    3.7008972E+05   -7.6465112E+02   -6.4492465E+02    3.7008973E+05    6.4492288E+02    3.7020946E+05
   -1.67   500.000   -1.176E+00    4.0211504E+05   -7.5072705E+02   -6.2361174E+02    4.0211505E+05    6.2361054E+02    4.0224217E+05
   -1.66   500.000   -1.297E+00    4.3586167E+05   -7.1736840E+02   -5.8043599E+02    4.3586168E+05    5.8043563E+02    4.3599861E+05
   -1.65   500.000   -1.420E+00    4.7138648E+05   -6.5944329E+02   -5.1044866E+02    4.7138649E+05    5.1044946E+02    4.7153549E+05
   -1.64   500.000   -1.545E+00    5.0866174E+05   -5.7280718E+02   -4.0963088E+02    5.0866175E+05    4.0963317E+02    5.0882493E+05
   -1.63   500.000   -1.672E+00    5.4754446E+05   -4.5517616E+02   -2.7566243E+02    5.4754448E+05    2.7566656E+02    5.4772399E+05
   -1.62   500.000   -1.802E+00    5.8777128E+05   -3.0690441E+02   -1.0859141E+02    5.8777130E+05    1.0859770E+02    5.8796961E+05
   -1.61   500.000   -1.935E+00    6.2898361E+05   -1.3152932E+02    8.8704042E+01    6.2898363E+05   -8.8695328E+01    6.2920387E+05
   -1.60   500.000   -2.070E+00    6.7077919E+05    6.3935359E+01    3.1025508E+02    6.7077921E+05   -3.1024376E+02    6.7102553E+05
   -1.59   500.000   -2.209E+00    7.1277763E+05    2.6887303E+02    5.4684310E+02    7.1277766E+05   -5.4682911E+02    7.1305563E+05
   -1.58   500.000   -2.350E+00    7.5468272E+05    4.6905800E+02    7.8589744E+02    7.5468275E+05   -7.8588085E+02    7.5499959E+05
   -1.57   500.000   -2.494E+00    7.9632513E+05    6.4693437E+02    1.0116283E+03    7.9632517E+05   -1.0116093E+03    7.9668986E+05
   -1.56   500.000   -2.641E+00    8.3767439E+05    7.8257479E+02    1.2058043E+03    8.3767443E+05   -1.2057832E+03    8.3809766E+05
   -1.55   500.000   -2.791E+00    8.7881523E+05    8.5570977E+02    1.3495745E+03    8.7881528E+05   -1.3495517E+03    8.7930914E+05
   -1.54   500.000   -2.943E+00    9.1989014E+05    8.4883466E+02    1.4263469E+03    9.1989020E+05   -1.4263229E+03    9.2046771E+05
   -1.53   500.000   -3.098E+00    9.6101717E+05    7.5074736E+02    1.4250850E+03    9.6101722E+05   -1.4250604E+03    9.6169156E+05
   -1.52   500.000   -3.257E+00    1.0022011E+06    5.5929548E+02    1.3428288E+03    1.0022012E+06   -1.3428040E+03    1.0029847E+06
   -1.51   500.000   -3.418E+00    1.0432621E+06    2.8203581E+02    1.1851976E+03    1.0432621E+06   -1.1851732E+03    1.0441653E+06
   -1.50   500.000   -3.583E+00    1.0838029E+06   -6.5829683E+01    9.6431724E+02    1.0838029E+06   -9.6429385E+02    1.0848331E+06
   -1.49   500.000   -3.751E+00    1.1232259E+06   -4.6565250E+02    6.9483757E+02    1.1232259E+06   -6.9481570E+02    1.1243864E+06
   -1.48   500.000   -3.923E+00    1.1607956E+06   -8.9992917E+02    3.8981277E+02    1.1607956E+06   -3.8979294E+02    1.1620854E+06
   -1.47   500.000   -4.098E+00    1.1957325E+06   -1.3552364E+03    5.8429217E+01    1.1957325E+06   -5.8411913E+01    1.1971462E+06
   -1.46   500.000   -4.277E+00    1.2273214E+06   -1.8223427E+03   -2.9343003E+02    1.2273214E+06    2.9344435E+02    1.2288503E+06
   -1.45   500.000   -4.459E+00    1.2550159E+06   -2.2939476E+03   -6.6048310E+02    1.2550160E+06    6.6049409E+02    1.2566494E+06
   -1.44   500.000   -4.644E+00    1.2785240E+06   -2.7618539E+03   -1.0352224E+03    1.2785240E+06    1.0352299E+03    1.2802506E+06
   -1.43   500.000   -4.831E+00    1.2978576E+06   -3.2155989E+03   -1.4070407E+03    1.2978577E+06    1.4070444E+03    1.2996662E+06
   -1.42   500.000   -5.021E+00    1.3133352E+06   -3.6435675E+03   -1.7641591E+03    1.3133352E+06    1.7641592E+03    1.3152146E+06
   -1.41   500.000   -5.213E+00    1.3255295E+06   -4.0360815E+03   -2.0975080E+03    1.3255295E+06    2.0975046E+03    1.3274681E+06
   -1.40   500.000   -5.407E+00    1.3351695E+06   -4.3888889E+03   -2.4046019E+03    1.3351695E+06    2.4045954E+03    1.3371538E+06
   -1.39   500.000   -5.603E+00    1.3430162E+06   -4.7053725E+03   -2.6914793E+03    1.3430162E+06    2.6914702E+03    1.3450301E+06
   -1.38   500.000   -5.801E+00    1.3497430E+06   -4.9964112E+03   -2.9716500E+03    1.3497430E+06    2.9716389E+03    1.3517678E+06
   -1.37   500.000   -6.001E+00    1.3558519E+06   -5.2776256E+03   -3.2620766E+03    1.3558519E+06    3.2620643E+03    1.3578675E+06
   -1.36   500.000   -6.204E+00    1.3616495E+06   -5.5644468E+03   -3.5771051E+03    1.3616495E+06    3.5770923E+03    1.3636368E+06
   -1.35   500.000   -6.410E+00    1.3672869E+06   -5.8661416E+03   -3.9219330E+03    1.3672869E+06    3.9219202E+03    1.3692311E+06
   -1.34   500.000   -6.618E+00    1.3728523E+06   -6.1805980E+03   -4.2876470E+03    1.3728524E+06    4.2876349E+03    1.3747453E+06
   -1.33   500.000   -6.831E+00    1.3784817E+06   -6.4918976E+03   -4.6497779E+03    1.3784817E+06    4.6497669E+03    1.3803239E+06
   -1.32   500.000   -7.046E+00    1.3844504E+06   -6.7719671E+03   -4.9713430E+03    1.3844504E+06    4.9713336E+03    1.3862510E+06
   -1.31   500.000   -7.266E+00    1.3912116E+06   -6.9859299E+03   -5.2096222E+03    1.3912117E+06    5.2096145E+03    1.3929880E+06
   -1.30   500.000   -7.489E+00    1.3993704E+06   -7.0990144E+03   -5.3242479E+03    1.3993704E+06    5.3242423E+03    1.4011452E+06
   -1.29   500.000   -7.715E+00    1.4096038E+06   -7.0821810E+03   -5.2836522E+03    1.4096038E+06    5.2836490E+03    1.4114024E+06
   -1.28   500.000   -7.945E+00    1.4225626E+06   -6.9145153E+03   -5.0679034E+03    1.4225627E+06    5.0679028E+03    1.4244093E+06
   -1.27   500.000   -8.178E+00    1.4387890E+06   -6.5823342E+03   -4.6678798E+03    1.4387890E+06    4.6678822E+03    1.4407035E+06
   -1.26   500.000   -8.414E+00    1.4586760E+06   -6.0766376E+03   -4.0823586E+03    1.4586760E+06    4.0823644E+03    1.4606703E+06
   -1.25   500.000   -8.651E+00    1.4824740E+06   -5.3910779E+03   -3.3151075E+03    1.4824741E+06    3.3151170E+03    1.4845501E+06
   -1.24   500.000   -8.891E+00    1.5103289E+06   -4.5219470E+03   -2.3734422E+03    1.5103290E+06    2.3734558E+03    1.5124775E+06
   -1.23   500.000   -9.133E+00    1.5423276E+06   -3.4703968E+03   -1.2685957E+03    1.5423277E+06    1.2686138E+03    1.5445295E+06
   -1.22   500.000   -9.375E+00    1.5785332E+06   -2.2459548E+03   -1.7312285E+01    1.5785332E+06    1.7334830E+01    1.5807619E+06
   -1.21   500.000   -9.620E+00    1.6190039E+06   -8.6983778E+02    1.3563365E+03    1.6190040E+06   -1.3563095E+03    1.6212302E+06
   -1.20   500.000   -9.866E+00    1.6638026E+06    6.2329910E+02    2.8198261E+03    1.6638026E+06   -2.8197951E+03    1.6659992E+06
   -1.19   500.000   -1.011E+01    1.7130007E+06    2.1858575E+03    4.3322421E+03    1.7130007E+06   -4.3322076E+03    1.7151471E+06
   -1.18   500.000   -1.036E+01    1.7666663E+06    3.7598520E+03    5.8455099E+03    1.7666664E+06   -5.8454727E+03    1.7687520E+06
   -1.17   500.000   -1.061E+01    1.8248109E+06    5.2807360E+03    7.3064219E+03    1.8248109E+06   -7.3063829E+03    1.8268366E+06
   -1.16   500.000   -1.087E+01    1.8872752E+06    6.6816854E+03    8.6591006E+03    1.8872752E+06   -8.6590608E+03    1.8892526E+06
   -1.15   500.000   -1.113E+01    1.9535666E+06    7.8980078E+03    9.8478820E+03    1.9535667E+06   -9.8478423E+03    1.9555165E+06
   -1.14   500.000   -1.139E+01    2.0226966E+06    8.8718297E+03    1.0820882E+04    2.0226967E+06   -1.0820843E+04    2.0246457E+06
   -1.13   500.000   -1.165E+01    2.0930892E+06    9.5571163E+03    1.1534282E+04    2.0930892E+06   -1.1534245E+04    2.0950664E+06
   -1.12   500.000   -1.192E+01    2.1626193E+06    9.9242821E+03    1.1956548E+04    2.1626193E+06   -1.1956512E+04    2.1646516E+06
   -1.11   500.000   -1.220E+01    2.2287987E+06    9.9627648E+03    1.2070978E+04    2.2287987E+06   -1.2070945E+04    2.2309069E+06
   -1.10   500.000   -1.248E+01    2.2890775E+06    9.6799044E+03    1.1875039E+04    2.2890776E+06   -1.1875007E+04    2.2912727E+06
   -1.09   500.000   -1.276E+01    2.3411920E+06    9.0957788E+03    1.1376265E+04    2.3411920E+06   -1.1376235E+04    2.3434724E+06
   -1.08   500.000   -1.305E+01    2.3834817E+06    8.2357384E+03    1.0586527E+04    2.3834817E+06   -1.0586499E+04    2.3858324E+06
   -1.07   500.000   -1.334E+01    2.4151162E+06    7.1239547E+03    9.5178271E+03    2.4151162E+06   -9.5178005E+03    2.4175101E+06
   -1.06   500.000   -1.363E+01    2.4362010E+06    5.7811723E+03    8.1823609E+03    2.4362010E+06   -8.1823361E+03    2.4386022E+06
   -1.05   500.000   -1.393E+01    2.4477647E+06    4.2278569E+03    6.5974560E+03    2.4477647E+06   -6.5974333E+03    2.4501343E+06
   -1.04   500.000   -1.422E+01    2.4516477E+06    2.4911464E+03    4.7932393E+03    2.4516477E+06   -4.7932191E+03    2.4539498E+06
   -1.03   500.000   -1.452E+01    2.4503165E+06    6.1198649E+02    2.8192066E+03    2.4503165E+06   -2.8191892E+03    2.4525237E+06
   -1.02   500.000   -1.482E+01    2.4466201E+06   -1.3513638E+03    7.4610173E+02    2.4466201E+06   -7.4608752E+02    2.4487176E+06
   -1.01   500.000   -1.512E+01    2.4435013E+06   -3.3257412E+03   -1.3386368E+03    2.4435013E+06    1.3386476E+03    2.4454884E+06
   -1.00   500.000   -1.542E+01    2.4436773E+06   -5.2312975E+03   -3.3411541E+03    2.4436773E+06    3.3411614E+03    2.4455674E+06
   -0.99   500.000   -1.573E+01    2.4493183E+06   -6.9931283E+03   -5.1743679E+03    2.4493183E+06    5.1743718E+03    2.4511370E+06
   -0.98   500.000   -1.603E+01    2.4617685E+06   -8.5523284E+03   -6.7699557E+03    2.4617685E+06    6.7699565E+03    2.4635508E+06
   -0.97   500.000   -1.634E+01    2.4813608E+06   -9.8721094E+03   -8.0848765E+03    2.4813608E+06    8.0848747E+03    2.4831480E+06
   -0.96   500.000   -1.665E+01    2.5073680E+06   -1.0935873E+04   -9.0995273E+03    2.5073679E+06    9.0995235E+03    2.5092043E+06
   -0.95   500.000   -1.697E+01    2.5381069E+06   -1.1737128E+04   -9.8076020E+03    2.5381068E+06    9.8075968E+03    2.5400364E+06
   -0.94   500.000   -1.728E+01    2.5711819E+06   -1.2264983E+04   -1.0201476E+04    2.5711819E+06    1.0201470E+04    2.5732454E+06
   -0.93   500.000   -1.761E+01    2.6038270E+06   -1.2491810E+04   -1.0259672E+04    2.6038269E+06    1.0259666E+04    2.6060591E+06
   -0.92   500.000   -1.793E+01    2.6332919E+06   -1.2369642E+04   -9.9428579E+03    2.6332919E+06    9.9428521E+03    2.6357187E+06
   -0.91   500.000   -1.826E+01    2.6572244E+06   -1.1838590E+04   -9.2015305E+03    2.6572244E+06    9.2015252E+03    2.6598615E+06
   -0.90   500.000   -1.860E+01    2.6740019E+06   -1.0845497E+04   -7.9935406E+03    2.6740019E+06    7.9935358E+03    2.6768538E+06
   -0.89   500.000   -1.894E+01    2.6829786E+06   -9.3667645E+03   -6.3054840E+03    2.6829786E+06    6.3054796E+03    2.6860399E+06
   -0.88   500.000   -1.928E+01    2.6846153E+06   -7.4275353E+03   -4.1703920E+03    2.6846153E+06    4.1703878E+03    2.6878724E+06
   -0.87   500.000   -1.963E+01    2.6804657E+06   -5.1105957E+03   -1.6754418E+03    2.6804657E+06    1.6754374E+03    2.6839008E+06
   -0.86   500.000   -1.998E+01    2.6730103E+06   -2.5516295E+03    1.0433392E+03    2.6730103E+06   -1.0433438E+03    2.6766052E+06
   -0.85   500.000   -2.034E+01    2.6653535E+06    7.8456999E+01    3.8184503E+03    2.6653535E+06   -3.8184553E+03    2.6690935E+06
   -0.84   500.000   -2.070E+01    2.6608302E+06    2.5997278E+03    6.4759941E+03    2.6608302E+06   -6.4759995E+03    2.6647065E+06
   -0.83   500.000   -2.106E+01    2.6625891E+06    4.8511969E+03    8.8620025E+03    2.6625891E+06   -8.8620080E+03    2.6666000E+06
   -0.82   500.000   -2.142E+01    2.6732280E+06    6.7135628E+03    1.0863418E+04    2.6732280E+06   -1.0863424E+04    2.6773779E+06
   -0.81   500.000   -2.179E+01    2.6945389E+06    8.1214397E+03    1.2418921E+04    2.6945389E+06   -1.2418926E+04    2.6988364E+06
   -0.80   500.000   -2.216E+01    2.7273942E+06    9.0631496E+03    1.3517937E+04    2.7273942E+06   -1.3517942E+04    2.7318490E+06
   -0.79   500.000   -2.254E+01    2.7717677E+06    9.5699333E+03    1.4189722E+04    2.7717677E+06   -1.4189727E+04    2.7763875E+06
   -0.78   500.000   -2.292E+01    2.8268575E+06    9.6994454E+03    1.4487241E+04    2.8268576E+06   -1.4487246E+04    2.8316454E+06
   -0.77   500.000   -2.331E+01    2.8912657E+06    9.5195044E+03    1.4471591E+04    2.8912657E+06   -1.4471596E+04    2.8962178E+06
   -0.76   500.000   -2.371E+01    2.9631929E+06    9.0967561E+03    1.4201516E+04    2.9631930E+06   -1.4201522E+04    2.9682977E+06
   -0.75   500.000   -2.410E+01    3.0406227E+06    8.4917102E+03    1.3729434E+04    3.0406227E+06   -1.3729443E+04    3.0458605E+06
   -0.74   500.000   -2.451E+01    3.1214786E+06    7.7581320E+03    1.3101945E+04    3.1214787E+06   -1.3101955E+04    3.1268225E+06
   -0.73   500.000   -2.492E+01    3.2037480E+06    6.9429655E+03    1.2360917E+04    3.2037481E+06   -1.2360930E+04    3.2091660E+06
   -0.72   500.000   -2.534E+01    3.2855651E+06    6.0838463E+03    1.1542056E+04    3.2855652E+06   -1.1542071E+04    3.2910234E+06
   -0.71   500.000   -2.577E+01    3.3652575E+06    5.2041543E+03    1.0670659E+04    3.3652576E+06   -1.0670677E+04    3.3707241E+06
   -0.70   500.000   -2.620E+01    3.4413702E+06    4.3084491E+03    9.7571872E+03    3.4413702E+06   -9.7572074E+03    3.4468190E+06
   -0.69   500.000   -2.663E+01    3.5126908E+06    3.3820928E+03    8.7962676E+03    3.5126909E+06   -8.7962900E+03    3.5181051E+06
   -0.68   500.000   -2.708E+01    3.5782913E+06    2.3973954E+03    7.7714145E+03    3.5782914E+06   -7.7714389E+03    3.5836654E+06
   -0.67   500.000   -2.752E+01    3.6375746E+06    1.3257286E+03    6.6650919E+03    3.6375746E+06   -6.6651184E+03    3.6429140E+06
   -0.66   500.000   -2.797E+01    3.6902959E+06    1.5234726E+02    5.4713065E+03    3.6902959E+06   -5.4713351E+03    3.6956149E+06
   -0.65   500.000   -2.843E+01    3.7365266E+06   -1.1107942E+03    4.2066550E+03    3.7365267E+06   -4.2066857E+03    3.7418441E+06
   -0.64   500.000   -2.889E+01    3.7765562E+06   -2.4188048E+03    2.9158460E+03    3.7765563E+06   -2.9158789E+03    3.7818909E+06
   -0.63   500.000   -2.935E+01    3.8107614E+06   -3.6970897E+03    1.6690964E+03    3.8107614E+06   -1.6691315E+03    3.8161276E+06
   -0.62   500.000   -2.981E+01    3.8394888E+06   -4.8539326E+03    5.5133480E+02    3.8394888E+06   -5.5137204E+02    3.8448940E+06
   -0.61   500.000   -3.027E+01    3.8629912E+06   -5.7987778E+03   -3.5378099E+02    3.8629912E+06    3.5374175E+02    3.8684362E+06
   -0.60   500.000   -3.074E+01    3.8814307E+06   -6.4600279E+03   -9.7971633E+02    3.8814306E+06    9.7967535E+02    3.8869110E+06
   -0.59   500.000   -3.120E+01    3.8949388E+06   -6.7962458E+03   -1.2873794E+03    3.8949388E+06    1.2873371E+03    3.9004476E+06
   -0.58   500.000   -3.167E+01    3.9037091E+06   -6.7977044E+03   -1.2670752E+03    3.9037090E+06    1.2670320E+03    3.9092397E+06
   -0.57   500.000   -3.213E+01    3.9080894E+06   -6.4797431E+03   -9.3319809E+02    3.9080894E+06    9.3315477E+02    3.9136359E+06
   -0.56   500.000   -3.260E+01    3.9086451E+06   -5.8727055E+03   -3.1572211E+02    3.9086451E+06    3.1567939E+02    3.9142021E+06
   -0.55   500.000   -3.306E+01    3.9061694E+06   -5.0134609E+03    5.4721685E+02    3.9061693E+06   -5.4725817E+02    3.9117300E+06
   -0.54   500.000   -3.353E+01    3.9016349E+06   -3.9410405E+03    1.6135267E+03    3.9016349E+06   -1.6135658E+03    3.9071894E+06
   -0.53   500.000   -3.399E+01    3.8960961E+06   -2.6959363E+03    2.8386485E+03    3.8960961E+06   -2.8386846E+03    3.9016307E+06
   -0.52   500.000   -3.446E+01    3.8905640E+06   -1.3211666E+03    4.1760030E+03    3.8905640E+06   -4.1760355E+03    3.8960612E+06
   -0.51   500.000   -3.492E+01    3.8858784E+06    1.3644325E+02    5.5775579E+03    3.8858785E+06   -5.5775864E+03    3.8913196E+06
   -0.50   500.000   -3.539E+01    3.8826031E+06    1.6253369E+03    6.9946067E+03    3.8826031E+06   -6.9946311E+03    3.8879724E+06
   -0.49   500.000   -3.585E+01    3.8809650E+06    3.0887415E+03    8.3783132E+03    3.8809651E+06   -8.3783339E+03    3.8862546E+06
   -0.48   500.000   -3.631E+01    3.8808573E+06    4.4647583E+03    9.6797422E+03    3.8808573E+06   -9.6797594E+03    3.8860723E+06
   -0.47   500.000   -3.678E+01    3.8819114E+06    5.6873091E+03    1.0849519E+04    3.8819115E+06   -1.0849534E+04    3.8870737E+06
   -0.46   500.000   -3.724E+01    3.8836255E+06    6.6882000E+03    1.1837645E+04    3.8836255E+06   -1.1837657E+04    3.8887750E+06
   -0.45   500.000   -3.770E+01    3.8855098E+06    7.4005879E+03    1.2594285E+04    3.8855098E+06   -1.2594296E+04    3.8907035E+06
   -0.44   500.000   -3.816E+01    3.8872012E+06    7.7642176E+03    1.3072539E+04    3.8872012E+06   -1.3072550E+04    3.8925095E+06
   -0.43   500.000   -3.862E+01    3.8885075E+06    7.7325688E+03    1.3233775E+04    3.8885075E+06   -1.3233787E+04    3.8940087E+06
   -0.42   500.000   -3.908E+01    3.8893776E+06    7.2810232E+03    1.3054899E+04    3.8893776E+06   -1.3054912E+04    3.8951515E+06
   -0.41   500.000   -3.954E+01    3.8898293E+06    6.4135455E+03    1.2535034E+04    3.8898293E+06   -1.2535048E+04    3.8959508E+06
   -0.40   500.000   -3.999E+01    3.8898893E+06    5.1643382E+03    1.1697951E+04    3.8898893E+06   -1.1697967E+04    3.8964229E+06
   -0.39   500.000   -4.044E+01    3.8895914E+06    3.5919786E+03    1.0587461E+04    3.8895914E+06   -1.0587479E+04    3.8965869E+06
   -0.38   500.000   -4.088E+01    3.8890484E+06    1.7669872E+03    9.2564317E+03    3.8890483E+06   -9.2564506E+03    3.8965378E+06
   -0.37   500.000   -4.133E+01    3.8885711E+06   -2.4217943E+02    7.7541800E+03    3.8885711E+06   -7.7541998E+03    3.8965675E+06
   -0.36   500.000   -4.176E+01    3.8887803E+06   -2.3780858E+03    6.1188269E+03    3.8887803E+06   -6.1188470E+03    3.8972772E+06
   -0.35   500.000   -4.220E+01    3.8906455E+06   -4.5940889E+03    4.3788676E+03    3.8906455E+06   -4.3788873E+03    3.8996184E+06
   -0.34   500.000   -4.262E+01    3.8954086E+06   -6.8459397E+03    2.5630573E+03    3.8954086E+06   -2.5630759E+03    3.9048176E+06
   -0.33   500.000   -4.305E+01    3.9043869E+06   -9.0803914E+03    7.1327301E+02    3.9043869E+06   -7.1328988E+02    3.9141805E+06
   -0.32   500.000   -4.347E+01    3.9186986E+06   -1.1226489E+04   -1.1058608E+03    3.9186985E+06    1.1058463E+03    3.9288192E+06
   -0.31   500.000   -4.389E+01    3.9389856E+06   -1.3192549E+04   -2.8042799E+03    3.9389856E+06    2.8042686E+03    3.9493739E+06
   -0.30   500.000   -4.430E+01    3.9652093E+06   -1.4868783E+04   -4.2710499E+03    3.9652093E+06    4.2710422E+03    3.9758071E+06
   -0.29   500.000   -4.471E+01    3.9965630E+06   -1.6134390E+04   -5.3847056E+03    3.9965631E+06    5.3847022E+03    4.0073127E+06
   -0.28   500.000   -4.512E+01    4.0315086E+06   -1.6868872E+04   -6.0280570E+03    4.0315087E+06    6.0280580E+03    4.0423495E+06
   -0.27   500.000   -4.553E+01    4.0679158E+06   -1.6968494E+04   -6.1068918E+03    4.0679158E+06    6.1068976E+03    4.0787774E+06
   -0.26   500.000   -4.593E+01    4.1032814E+06   -1.6368025E+04   -5.5714380E+03    4.1032815E+06    5.5714484E+03    4.1140781E+06
   -0.25   500.000   -4.634E+01    4.1350128E+06   -1.5064635E+04   -4.4369676E+03    4.1350129E+06    4.4369824E+03    4.1456406E+06
   -0.24   500.000   -4.675E+01    4.1607518E+06   -1.3136647E+04   -2.7969759E+03    4.1607519E+06    2.7969944E+03    4.1710916E+06
   -0.23   500.000   -4.715E+01    4.1786955E+06   -1.0747951E+04   -8.2153729E+02    4.1786956E+06    8.2155885E+02    4.1886221E+06
   -0.22   500.000   -4.756E+01    4.1878445E+06   -8.1316040E+03    1.2634230E+03    4.1878446E+06   -1.2633993E+03    4.1972397E+06
   -0.21   500.000   -4.797E+01    4.1881069E+06   -5.5532154E+03    3.2136996E+03    4.1881070E+06   -3.2136748E+03    4.1968739E+06
   -0.20   500.000   -4.839E+01    4.1802225E+06   -3.2629581E+03    4.8120956E+03    4.1802226E+06   -4.8120706E+03    4.1882977E+06
   -0.19   500.000   -4.880E+01    4.1655251E+06   -1.4500416E+03    5.9086678E+03    4.1655252E+06   -5.9086433E+03    4.1728839E+06
   -0.18   500.000   -4.922E+01    4.1456047E+06   -2.1272069E+02    6.4446932E+03    4.1456048E+06   -6.4446699E+03    4.1522622E+06
   -0.17   500.000   -4.964E+01    4.1219534E+06    4.4902079E+02    6.4549021E+03    4.1219534E+06   -6.4548804E+03    4.1279593E+06
   -0.16   500.000   -5.006E+01    4.0956684E+06    6.1881627E+02    6.0496106E+03    4.0956684E+06   -6.0495908E+03    4.1010992E+06
   -0.15   500.000   -5.048E+01    4.0672767E+06    4.3427522E+02    5.3838058E+03    4.0672767E+06   -5.3837878E+03    4.0722262E+06
   -0.14   500.000   -5.091E+01    4.0367205E+06    5.2195853E+01    4.6225346E+03    4.0367205E+06   -4.6225186E+03    4.0412909E+06
   -0.13   500.000   -5.135E+01    4.0035184E+06   -3.8211785E+02    3.9112214E+03    4.0035184E+06   -3.9112072E+03    4.0078118E+06
   -0.12   500.000   -5.179E+01    3.9670709E+06   -7.5537209E+02    3.3565157E+03    3.9670709E+06   -3.3565032E+03    3.9711827E+06
   -0.11   500.000   -5.224E+01    3.9270348E+06   -9.9506692E+02    3.0190585E+03    3.9270348E+06   -3.0190478E+03    3.9310489E+06
   -0.10   500.000   -5.269E+01    3.8836593E+06   -1.0689597E+03    2.9157804E+03    3.8836593E+06   -2.9157715E+03    3.8876440E+06
   -0.09   500.000   -5.316E+01    3.8379774E+06   -9.7932228E+02    3.0276693E+03    3.8379774E+06   -3.0276622E+03    3.8419844E+06
   -0.08   500.000   -5.363E+01    3.7917884E+06   -7.5522486E+02    3.3096826E+03    3.7917884E+06   -3.3096772E+03    3.7958533E+06
   -0.07   500.000   -5.412E+01    3.7474343E+06   -4.4416688E+02    3.7011523E+03    3.7474343E+06   -3.7011486E+03    3.7515796E+06
   -0.06   500.000   -5.462E+01    3.7074355E+06   -1.0341794E+02    4.1358474E+03    3.7074355E+06   -4.1358455E+03    3.7116748E+06
   -0.05   500.000   -5.512E+01    3.6740934E+06    2.0799853E+02    4.5503665E+03    3.6740934E+06   -4.5503663E+03    3.6784357E+06
   -0.04   500.000   -5.565E+01    3.6491519E+06    4.3477528E+02    4.8888783E+03    3.6491519E+06   -4.8888797E+03    3.6536060E+06
   -0.03   500.000   -5.618E+01    3.6335796E+06    5.2645603E+02    5.1027342E+03    3.6335796E+06   -5.1027373E+03    3.6381558E+06
   -0.02   500.000   -5.673E+01    3.6274805E+06    4.3406778E+02    5.1453376E+03    3.6274805E+06   -5.1453423E+03    3.6321918E+06
   -0.01   500.000   -5.730E+01    3.6301163E+06    1.0441363E+02    4.9649540E+03    3.6301163E+06   -4.9649603E+03    3.6349768E+06
    0.00   500.000   -5.787E+01    3.6400107E+06   -5.2401113E+02    4.4997189E+03    3.6400107E+06   -4.4997266E+03    3.6450344E+06
    0.01   500.000   -5.846E+01    3.6551153E+06   -1.5193260E+03    3.6790540E+03    3.6551153E+06   -3.6790627E+03    3.6603137E+06
    0.02   500.000   -5.906E+01    3.6730172E+06   -2.9467525E+03    2.4334700E+03    3.6730172E+06   -2.4334791E+03    3.6783974E+06
    0.03   500.000   -5.967E+01    3.6911715E+06   -4.8533585E+03    7.1058957E+02    3.6911715E+06   -7.1059847E+02    3.6967355E+06
    0.04   500.000   -6.029E+01    3.7071389E+06   -7.2532650E+03   -1.5089586E+03    3.7071390E+06    1.5089507E+03    3.7128833E+06
    0.05   500.000   -6.091E+01    3.7188083E+06   -1.0120664E+04   -4.2034112E+03    3.7188083E+06    4.2034051E+03    3.7247256E+06
    0.06   500.000   -6.154E+01    3.7245882E+06   -1.3394550E+04   -7.3138598E+03    3.7245882E+06    7.3138560E+03    3.7306689E+06
    0.07   500.000   -6.217E+01    3.7235518E+06   -1.6992804E+04   -1.0758453E+04    3.7235518E+06    1.0758452E+04    3.7297861E+06
    0.08   500.000   -6.281E+01    3.7155161E+06   -2.0828381E+04   -1.4449758E+04    3.7155161E+06    1.4449759E+04    3.7218947E+06
    0.09   500.000   -6.346E+01    3.7010395E+06   -2.4820259E+04   -1.8307665E+04    3.7010395E+06    1.8307668E+04    3.7075521E+06
    0.10   500.000   -6.410E+01    3.6813298E+06   -2.8896419E+04   -2.2264451E+04    3.6813298E+06    2.2264457E+04    3.6879618E+06
    0.11   500.000   -6.475E+01    3.6580764E+06   -3.2992063E+04   -2.6264302E+04    3.6580764E+06    2.6264309E+04    3.6648041E+06
    0.12   500.000   -6.541E+01    3.6332338E+06   -3.7049117E+04   -3.0262609E+04    3.6332339E+06    3.0262617E+04    3.6400204E+06
    0.13   500.000   -6.606E+01    3.6087923E+06   -4.1020981E+04   -3.4228772E+04    3.6087923E+06    3.4228781E+04    3.6155845E+06
    0.14   500.000   -6.673E+01    3.5865640E+06   -4.4881256E+04   -3.8151631E+04    3.5865641E+06    3.8151638E+04    3.5932937E+06
    0.15   500.000   -6.739E+01    3.5680161E+06   -4.8630890E+04   -4.2042902E+04    3.5680161E+06    4.2042909E+04    3.5746041E+06
    0.16   500.000   -6.807E+01    3.5541748E+06   -5.2297845E+04   -4.5933938E+04    3.5541749E+06    4.5933944E+04    3.5605388E+06
    0.17   500.000   -6.875E+01    3.5456223E+06   -5.5927197E+04   -4.9864535E+04    3.5456224E+06    4.9864540E+04    3.5516851E+06
    0.18   500.000   -6.944E+01    3.5425782E+06   -5.9564784E+04   -5.3867161E+04    3.5425783E+06    5.3867164E+04    3.5482759E+06
    0.19   500.000   -7.014E+01    3.5450284E+06   -6.3241118E+04   -5.7952897E+04    3.5450284E+06    5.7952900E+04    3.5503166E+06
    0.20   500.000   -7.084E+01    3.5528358E+06   -6.6962519E+04   -6.2105266E+04    3.5528359E+06    6.2105269E+04    3.5576931E+06
    0.21   500.000   -7.156E+01    3.5657782E+06   -7.0713273E+04   -6.6285002E+04    3.5657783E+06    6.6285005E+04    3.5702066E+06
    0.22   500.000   -7.228E+01    3.5834942E+06   -7.4467592E+04   -7.0444081E+04    3.5834943E+06    7.0444086E+04    3.5875178E+06
    0.23   500.000   -7.301E+01    3.6053730E+06   -7.8205383E+04   -7.4542863E+04    3.6053731E+06    7.4542870E+04    3.6090357E+06
    0.24   500.000   -7.375E+01    3.6304518E+06   -8.1923357E+04   -7.8561921E+04    3.6304519E+06    7.8561933E+04    3.6338134E+06
    0.25   500.000   -7.449E+01    3.6573791E+06   -8.5634126E+04   -8.2501364E+04    3.6573792E+06    8.2501380E+04    3.6605120E+06
    0.26   500.000   -7.524E+01    3.6844730E+06   -8.9350821E+04   -8.6365316E+04    3.6844731E+06    8.6365336E+04    3.6874586E+06
    0.27   500.000   -7.599E+01    3.7098672E+06   -9.3061782E+04   -9.0136285E+04    3.7098673E+06    9.0136311E+04    3.7127928E+06
    0.28   500.000   -7.675E+01    3.7317172E+06   -9.6706003E+04   -9.3750239E+04    3.7317173E+06    9.3750271E+04    3.7346731E+06
    0.29   500.000   -7.752E+01    3.7484247E+06   -1.0016193E+05   -9.7085103E+04    3.7484248E+06    9.7085140E+04    3.7515017E+06
    0.30   500.000   -7.828E+01    3.7588401E+06   -1.0325824E+05   -9.9971372E+04    3.7588402E+06    9.9971414E+04    3.7621271E+06
    0.31   500.000   -7.906E+01    3.7624121E+06   -1.0580666E+05   -1.0222493E+05    3.7624123E+06    1.0222497E+05    3.7659940E+06
    0.32   500.000   -7.983E+01    3.7592700E+06   -1.0764754E+05   -1.0369278E+05    3.7592702E+06    1.0369282E+05    3.7632250E+06
    0.33   500.000   -8.061E+01    3.7502425E+06   -1.0869307E+05   -1.0429653E+05    3.7502427E+06    1.0429657E+05    3.7546393E+06
    0.34   500.000   -8.140E+01    3.7368211E+06   -1.0895299E+05   -1.0405851E+05    3.7368213E+06    1.0405856E+05    3.7417158E+06
    0.35   500.000   -8.218E+01    3.7210674E+06   -1.0853373E+05   -1.0310125E+05    3.7210676E+06    1.0310129E+05    3.7265001E+06
    0.36   500.000   -8.297E+01    3.7054534E+06   -1.0761092E+05   -1.0162023E+05    3.7054536E+06    1.0162027E+05    3.7114442E+06
    0.37   500.000   -8.375E+01    3.6926255E+06   -1.0638479E+05   -9.9838991E+04    3.6926257E+06    9.9839027E+04    3.6991715E+06
    0.38   500.000   -8.454E+01    3.6851046E+06   -1.0503268E+05   -9.7960633E+04    3.6851048E+06    9.7960663E+04    3.6921768E+06
    0.39   500.000   -8.533E+01    3.6849645E+06   -1.0367284E+05   -9.6129846E+04    3.6849647E+06    9.6129870E+04    3.6925077E+06
    0.40   500.000   -8.613E+01    3.6935560E+06   -1.0234829E+05   -9.4414226E+04    3.6935562E+06    9.4414244E+04    3.7014903E+06
    0.41   500.000   -8.693E+01    3.7113380E+06   -1.0103195E+05   -9.2806669E+04    3.7113382E+06    9.2806681E+04    3.7195634E+06
    0.42   500.000   -8.773E+01    3.7378518E+06   -9.9648053E+04   -9.1244452E+04    3.7378519E+06    9.1244458E+04    3.7462555E+06
    0.43   500.000   -8.854E+01    3.7718324E+06   -9.8102121E+04   -8.9637686E+04    3.7718326E+06    8.9637687E+04    3.7802970E+06
    0.44   500.000   -8.936E+01    3.8114176E+06   -9.6311970E+04   -8.7899979E+04    3.8114177E+06    8.7899974E+04    3.8198297E+06
    0.45   500.000   -9.019E+01    3.8543970E+06   -9.4233999E+04   -8.5975705E+04    3.8543971E+06    8.5975696E+04    3.8626554E+06
    0.46   500.000   -9.102E+01    3.8984500E+06   -9.1880713E+04   -8.3859587E+04    3.8984501E+06    8.3859574E+04    3.9064712E+06
    0.47   500.000   -9.187E+01    3.9413299E+06   -8.9325830E+04   -8.1604660E+04    3.9413300E+06    8.1604644E+04    3.9490512E+06
    0.48   500.000   -9.272E+01    3.9809750E+06   -8.6694013E+04   -7.9315165E+04    3.9809750E+06    7.9315147E+04    3.9883539E+06
    0.49   500.000   -9.359E+01    4.0155479E+06   -8.4134501E+04   -7.7123052E+04    4.0155479E+06    7.7123033E+04    4.0225594E+06
    0.50   500.000   -9.446E+01    4.0434273E+06   -8.1782586E+04   -7.5151421E+04    4.0434273E+06    7.5151402E+04    4.0500585E+06
    0.51   500.000   -9.534E+01    4.0631904E+06   -7.9718621E+04   -7.3474051E+04    4.0631905E+06    7.3474032E+04    4.0694350E+06
    0.52   500.000   -9.624E+01    4.0736246E+06   -7.7937695E+04   -7.2084020E+04    4.0736247E+06    7.2084002E+04    4.0794784E+06
    0.53   500.000   -9.714E+01    4.0737865E+06   -7.6341661E+04   -7.0883487E+04    4.0737866E+06    7.0883471E+04    4.0792448E+06
    0.54   500.000   -9.806E+01    4.0630995E+06   -7.4758711E+04   -6.9700636E+04    4.0630995E+06    6.9700622E+04    4.0681576E+06
    0.55   500.000   -9.898E+01    4.0414571E+06   -7.2986642E+04   -6.8330886E+04    4.0414572E+06    6.8330875E+04    4.0461129E+06
    0.56   500.000   -9.991E+01    4.0092925E+06   -7.0847943E+04   -6.6591156E+04    4.0092926E+06    6.6591147E+04    4.0135494E+06
    0.57   500.000   -1.008E+02    3.9675826E+06   -6.8240541E+04   -6.4371151E+04    3.9675827E+06    6.4371144E+04    3.9714521E+06
    0.58   500.000   -1.018E+02    3.9177733E+06   -6.5169046E+04   -6.1666086E+04    3.9177734E+06    6.1666082E+04    3.9212764E+06
    0.59   500.000   -1.027E+02    3.8616284E+06   -6.1747464E+04   -5.8581185E+04    3.8616285E+06    5.8581183E+04    3.8647947E+06
    0.60   500.000   -1.037E+02    3.8010174E+06   -5.8173881E+04   -5.5307819E+04    3.8010175E+06    5.5307819E+04    3.8038836E+06
    0.61   500.000   -1.046E+02    3.7376715E+06   -5.4686588E+04   -5.2080436E+04    3.7376715E+06    5.2080439E+04    3.7402777E+06
    0.62   500.000   -1.055E+02    3.6729481E+06   -5.1515662E+04   -4.9128230E+04    3.6729481E+06    4.9128235E+04    3.6753356E+06
    0.63   500.000   -1.065E+02    3.6076559E+06   -4.8842268E+04   -4.6633994E+04    3.6076560E+06    4.6634001E+04    3.6098642E+06
    0.64   500.000   -1.074E+02    3.5419833E+06   -4.6771879E+04   -4.4706602E+04    3.5419834E+06    4.4706611E+04    3.5440487E+06
    0.65   500.000   -1.083E+02    3.4755536E+06   -4.5321537E+04   -4.3367503E+04    3.4755537E+06    4.3367513E+04    3.4775077E+06
    0.66   500.000   -1.092E+02    3.4075975E+06   -4.4418607E+04   -4.2548856E+04    3.4075976E+06    4.2548867E+04    3.4094673E+06
    0.67   500.000   -1.101E+02    3.3372014E+06   -4.3909363E+04   -4.2101726E+04    3.3372015E+06    4.2101737E+04    3.3390091E+06
    0.68   500.000   -1.110E+02    3.2635701E+06   -4.3577442E+04   -4.1814363E+04    3.2635702E+06    4.1814373E+04    3.2653333E+06
    0.69   500.000   -1.119E+02    3.1862405E+06   -4.3172217E+04   -4.1440543E+04    3.1862406E+06    4.1440551E+04    3.1879723E+06
    0.70   500.000   -1.127E+02    3.1051999E+06   -4.2444943E+04   -4.0735723E+04    3.1052001E+06    4.0735730E+04    3.1069093E+06
    0.71   500.000   -1.136E+02    3.0208950E+06   -4.1187478E+04   -3.9495737E+04    3.0208951E+06    3.9495741E+04    3.0225869E+06
    0.72   500.000   -1.144E+02    2.9341504E+06   -3.9266163E+04   -3.7590563E+04    2.9341505E+06    3.7590564E+04    2.9358261E+06
    0.73   500.000   -1.152E+02    2.8460389E+06   -3.6643260E+04   -3.4985591E+04    2.8460390E+06    3.4985590E+04    2.8476967E+06
    0.74   500.000   -1.159E+02    2.7577480E+06   -3.3380649E+04   -3.1745150E+04    2.7577481E+06    3.1745146E+04    2.7593836E+06
    0.75   500.000   -1.167E+02    2.6704759E+06   -2.9624783E+04   -2.8017348E+04    2.6704761E+06    2.8017343E+04    2.6720835E+06
    0.76   500.000   -1.174E+02    2.5853701E+06   -2.5576721E+04   -2.4004132E+04    2.5853702E+06    2.4004126E+04    2.5869428E+06
    0.77   500.000   -1.181E+02    2.5035038E+06   -2.1454699E+04   -1.9924009E+04    2.5035039E+06    1.9924002E+04    2.5050346E+06
    0.78   500.000   -1.188E+02    2.4258800E+06   -1.7458149E+04   -1.5976307E+04    2.4258801E+06    1.5976300E+04    2.4273620E+06
    0.79   500.000   -1.194E+02    2.3534473E+06   -1.3741205E+04   -1.2314916E+04    2.3534474E+06    1.2314910E+04    2.3548737E+06
    0.80   500.000   -1.200E+02    2.2871137E+06   -1.0400891E+04   -9.0366326E+03    2.2871138E+06    9.0366278E+03    2.2884781E+06
    0.81   500.000   -1.206E+02    2.2277522E+06   -7.4810393E+03   -6.1850660E+03    2.2277523E+06    6.1850627E+03    2.2290483E+06
    0.82   500.000   -1.212E+02    2.1761916E+06   -4.9884490E+03   -3.7666326E+03    2.1761916E+06    3.7666310E+03    2.1774134E+06
    0.83   500.000   -1.218E+02    2.1331949E+06   -2.9143324E+03   -1.7717509E+03    2.1331949E+06    1.7717513E+03    2.1343375E+06
    0.84   500.000   -1.223E+02    2.0994286E+06   -1.2528953E+03   -1.9319850E+02    2.0994286E+06    1.9320101E+02    2.1004883E+06
    0.85   500.000   -1.228E+02    2.0754235E+06   -1.0428161E+01    9.6487639E+02    2.0754236E+06   -9.6487166E+02    2.0763989E+06
    0.86   500.000   -1.233E+02    2.0615283E+06    7.9792030E+02    1.6900623E+03    2.0615284E+06   -1.6900554E+03    2.0624205E+06
    0.87   500.000   -1.238E+02    2.0578514E+06    1.1616781E+03    1.9749288E+03    2.0578514E+06   -1.9749199E+03    2.0586647E+06
    0.88   500.000   -1.243E+02    2.0641873E+06    1.0926528E+03    1.8342569E+03    2.0641873E+06   -1.8342462E+03    2.0649289E+06
    0.89   500.000   -1.248E+02    2.0799260E+06    6.3845342E+02    1.3182142E+03    2.0799260E+06   -1.3182020E+03    2.0806058E+06
    0.90   500.000   -1.252E+02    2.1039559E+06   -1.1473156E+02    5.1488591E+02    2.1039560E+06   -5.1487261E+02    2.1045856E+06
    0.91   500.000   -1.257E+02    2.1345903E+06   -1.0523463E+03   -4.6005926E+02    2.1345904E+06    4.6007322E+02    2.1351826E+06
    0.92   500.000   -1.262E+02    2.1695593E+06   -2.0516031E+03   -1.4835219E+03    2.1695593E+06    1.4835361E+03    2.1701274E+06
    0.93   500.000   -1.266E+02    2.2061093E+06   -3.0047579E+03   -2.4481971E+03    2.2061094E+06    2.4482112E+03    2.2066659E+06
    0.94   500.000   -1.271E+02    2.2412247E+06   -3.8380535E+03   -3.2814347E+03    2.2412248E+06    3.2814485E+03    2.2417814E+06
    0.95   500.000   -1.276E+02    2.2719438E+06   -4.5210204E+03   -3.9544331E+03    2.2719439E+06    3.9544465E+03    2.2725105E+06
    0.96   500.000   -1.280E+02    2.2957018E+06   -5.0645096E+03   -4.4801398E+03    2.2957019E+06    4.4801528E+03    2.2962863E+06
    0.97   500.000   -1.285E+02    2.3106176E+06   -5.5095412E+03   -4.9019293E+03    2.3106177E+06    4.9019422E+03    2.3112253E+06
    0.98   500.000   -1.290E+02    2.3156575E+06   -5.9116069E+03   -5.2776926E+03    2.3156576E+06    5.2777055E+03    2.3162915E+06
    0.99   500.000   -1.294E+02    2.3106501E+06   -6.3257717E+03   -5.6646935E+03    2.3106501E+06    5.6647069E+03    2.3113112E+06
    1.00   500.000   -1.299E+02    2.2961682E+06   -6.7966049E+03   -6.1092471E+03    2.2961683E+06    6.1092613E+03    2.2968556E+06
    1.01   500.000   -1.304E+02    2.2733293E+06   -7.3542487E+03   -6.6425560E+03    2.2733293E+06    6.6425713E+03    2.2740410E+06
    1.02   500.000   -1.309E+02    2.2435742E+06   -8.0152217E+03   -7.2813324E+03    2.2435743E+06    7.2813489E+03    2.2443081E+06
    1.03   500.000   -1.314E+02    2.2084859E+06   -8.7853131E+03   -8.0305860E+03    2.2084859E+06    8.0306036E+03    2.2092406E+06
    1.04   500.000   -1.319E+02    2.1696817E+06   -9.6624947E+03   -8.8865235E+03    2.1696818E+06    8.8865423E+03    2.1704578E+06
    1.05   500.000   -1.324E+02    2.1287848E+06   -1.0639193E+04   -9.8389085E+03    2.1287849E+06    9.8389283E+03    2.1295851E+06
    1.06   500.000   -1.329E+02    2.0874396E+06   -1.1704198E+04   -1.0873145E+04    2.0874397E+06    1.0873166E+04    2.0882707E+06
    1.07   500.000   -1.334E+02    2.0473241E+06   -1.2844405E+04   -1.1972256E+04    2.0473242E+06    1.1972277E+04    2.0481963E+06
    1.08   500.000   -1.339E+02    2.0101149E+06   -1.4045926E+04   -1.3118269E+04    2.0101150E+06    1.3118291E+04    2.0110426E+06
    1.09   500.000   -1.344E+02    1.9773934E+06   -1.5293833E+04   -1.4292245E+04    1.9773934E+06    1.4292268E+04    1.9783950E+06
    1.10   500.000   -1.350E+02    1.9505102E+06   -1.6570342E+04   -1.5472768E+04    1.9505102E+06    1.5472791E+04    1.9516077E+06
    1.11   500.000   -1.355E+02    1.9304444E+06   -1.7852526E+04   -1.6633955E+04    1.9304445E+06    1.6633978E+04    1.9316630E+06
    1.12   500.000   -1.361E+02    1.9176987E+06   -1.9111507E+04   -1.7744956E+04    1.9176987E+06    1.7744979E+04    1.9190653E+06
    1.13   500.000   -1.367E+02    1.9122585E+06   -2.0314843E+04   -1.8772617E+04    1.9122585E+06    1.8772640E+04    1.9138007E+06
    1.14   500.000   -1.373E+02    1.9136302E+06   -2.1432350E+04   -1.9687506E+04    1.9136301E+06    1.9687528E+04    1.9153750E+06
    1.15   500.000   -1.379E+02    1.9209467E+06   -2.2443742E+04   -2.0471653E+04    1.9209467E+06    2.0471675E+04    1.9229188E+06
    1.16   500.000   -1.385E+02    1.9331126E+06   -2.3345197E+04   -2.1125100E+04    1.9331126E+06    2.1125121E+04    1.9353327E+06
    1.17   500.000   -1.392E+02    1.9489480E+06   -2.4151805E+04   -2.1668194E+04    1.9489480E+06    2.1668214E+04    1.9514316E+06
    1.18   500.000   -1.398E+02    1.9673014E+06   -2.4893885E+04   -2.2137633E+04    1.9673013E+06    2.2137653E+04    1.9700576E+06
    1.19   500.000   -1.405E+02    1.9871164E+06   -2.5607365E+04   -2.2576447E+04    1.9871163E+06    2.2576467E+04    1.9901473E+06
    1.20   500.000   -1.412E+02    2.0074615E+06   -2.6321220E+04   -2.3020903E+04    2.0074614E+06    2.3020925E+04    2.0107617E+06
    1.21   500.000   -1.420E+02    2.0275370E+06   -2.7047025E+04   -2.3489438E+04    2.0275369E+06    2.3489461E+04    2.0310945E+06
    1.22   500.000   -1.427E+02    2.0466712E+06   -2.7775463E+04   -2.3978567E+04    2.0466711E+06    2.3978592E+04    2.0504680E+06
    1.23   500.000   -1.435E+02    2.0643051E+06   -2.8481743E+04   -2.4467940E+04    2.0643050E+06    2.4467968E+04    2.0683188E+06
    1.24   500.000   -1.443E+02    2.0799647E+06   -2.9137724E+04   -2.4932508E+04    2.0799646E+06    2.4932540E+04    2.0841698E+06
    1.25   500.000   -1.451E+02    2.0932289E+06   -2.9725415E+04   -2.5356493E+04    2.0932288E+06    2.5356529E+04    2.0975977E+06
    1.26   500.000   -1.460E+02    2.1037115E+06   -3.0245934E+04   -2.5743066E+04    2.1037114E+06    2.5743106E+04    2.1082143E+06
    1.27   500.000   -1.468E+02    2.1110779E+06   -3.0719963E+04   -2.6115464E+04    2.1110778E+06    2.6115508E+04    2.1156823E+06
    1.28   500.000   -1.478E+02    2.1150959E+06   -3.1179227E+04   -2.6508761E+04    2.1150958E+06    2.6508809E+04    2.1197662E+06
    1.29   500.000   -1.487E+02    2.1156971E+06   -3.1652173E+04   -2.6955305E+04    2.1156970E+06    2.6955355E+04    2.1203939E+06
    1.30   500.000   -1.497E+02    2.1130122E+06   -3.2149653E+04   -2.7469589E+04    2.1130121E+06    2.7469640E+04    2.1176921E+06
    1.31   500.000   -1.507E+02    2.1073477E+06   -3.2656870E+04   -2.8038978E+04    2.1073476E+06    2.8039029E+04    2.1119655E+06
    1.32   500.000   -1.518E+02    2.0991084E+06   -3.3135569E+04   -2.8624608E+04    2.0991083E+06    2.8624659E+04    2.1036193E+06
    1.33   500.000   -1.529E+02    2.0886940E+06   -3.3536102E+04   -2.9172551E+04    2.0886939E+06    2.9172601E+04    2.0930575E+06
    1.34   500.000   -1.540E+02    2.0764226E+06   -3.3814556E+04   -2.9630859E+04    2.0764225E+06    2.9630907E+04    2.0806062E+06
    1.35   500.000   -1.552E+02    2.0625189E+06   -3.3947868E+04   -2.9965580E+04    2.0625187E+06    2.9965625E+04    2.0665010E+06
    1.36   500.000   -1.565E+02    2.0471808E+06   -3.3940927E+04   -3.0169561E+04    2.0471807E+06    3.0169604E+04    2.0509520E+06
    1.37   500.000   -1.577E+02    2.0307030E+06   -3.3823454E+04   -3.0261297E+04    2.0307029E+06    3.0261337E+04    2.0342650E+06
    1.38   500.000   -1.591E+02    2.0136120E+06   -3.3638878E+04   -3.0275434E+04    2.0136119E+06    3.0275471E+04    2.0169753E+06
    1.39   500.000   -1.604E+02    1.9967627E+06   -3.3430408E+04   -3.0249692E+04    1.9967626E+06    3.0249727E+04    1.9999433E+06
    1.40   500.000   -1.617E+02    1.9813559E+06   -3.3229844E+04   -3.0213600E+04    1.9813557E+06    3.0213633E+04    1.9843720E+06
    1.41   500.000   -1.631E+02    1.9688601E+06   -3.3052510E+04   -3.0182633E+04    1.9688599E+06    3.0182663E+04    1.9717298E+06
    1.42   500.000   -1.645E+02    1.9608490E+06   -3.2898456E+04   -3.0158272E+04    1.9608488E+06    3.0158299E+04    1.9635890E+06
    1.43   500.000   -1.659E+02    1.9587859E+06   -3.2757479E+04   -3.0131975E+04    1.9587857E+06    3.0132000E+04    1.9614112E+06
    1.44   500.000   -1.672E+02    1.9638035E+06   -3.2614671E+04   -3.0090052E+04    1.9638033E+06    3.0090074E+04    1.9663279E+06
    1.45   500.000   -1.686E+02    1.9765259E+06   -3.2453953E+04   -3.0017039E+04    1.9765257E+06    3.0017057E+04    1.9789626E+06
    1.46   500.000   -1.699E+02    1.9969699E+06   -3.2258662E+04   -2.9896548E+04    1.9969697E+06    2.9896563E+04    1.9993318E+06
    1.47   500.000   -1.712E+02    2.0245412E+06   -3.2009637E+04   -2.9709877E+04    2.0245411E+06    2.9709888E+04    2.0268408E+06
    1.48   500.000   -1.724E+02    2.0581177E+06   -3.1682177E+04   -2.9433524E+04    2.0581175E+06    2.9433531E+04    2.0603662E+06
    1.49   500.000   -1.736E+02    2.0961885E+06   -3.1243674E+04   -2.9037235E+04    2.0961883E+06    2.9037239E+04    2.0983947E+06
    1.50   500.000   -1.748E+02    2.1370128E+06   -3.0653767E+04   -2.8484304E+04    2.1370126E+06    2.8484303E+04    2.1391821E+06
    1.51   500.000   -1.759E+02    2.1787647E+06   -2.9868396E+04   -2.7735438E+04    2.1787646E+06    2.7735433E+04    2.1808975E+06
    1.52   500.000   -1.769E+02    2.2196498E+06   -2.8847895E+04   -2.6756335E+04    2.2196497E+06    2.6756327E+04    2.2217412E+06
    1.53   500.000   -1.780E+02    2.2580002E+06   -2.7567552E+04   -2.5527446E+04    2.2580001E+06    2.5527436E+04    2.2600402E+06
    1.54   500.000   -1.789E+02    2.2923651E+06   -2.6027645E+04   -2.4053075E+04    2.2923649E+06    2.4053063E+04    2.2943395E+06
    1.55   500.000   -1.799E+02    2.3216101E+06   -2.4259605E+04   -2.2366663E+04    2.3216100E+06    2.2366649E+04    2.3235029E+06
    1.56   500.000   -1.807E+02    2.3450207E+06   -2.2325921E+04   -2.0530101E+04    2.3450205E+06    2.0530086E+04    2.3468163E+06
    1.57   500.000   -1.816E+02    2.3623837E+06   -2.0313282E+04   -1.8626752E+04    2.3623836E+06    1.8626738E+04    2.3640701E+06
    1.58   500.000   -1.824E+02    2.3740159E+06   -1.8320602E+04   -1.6749887E+04    2.3740157E+06    1.6749874E+04    2.3755865E+06
    1.59   500.000   -1.832E+02    2.3807181E+06   -1.6445214E+04   -1.4989677E+04    2.3807179E+06    1.4989665E+04    2.3821735E+06
    1.60   500.000   -1.840E+02    2.3836642E+06   -1.4770933E+04   -1.3422230E+04    2.3836641E+06    1.3422221E+04    2.3850128E+06
    1.61   500.000   -1.848E+02    2.3842517E+06   -1.3360671E+04   -1.2103079E+04    2.3842516E+06    1.2103074E+04    2.3855092E+06
    1.62   500.000   -1.856E+02    2.3839481E+06   -1.2254350E+04   -1.1065705E+04    2.3839480E+06    1.1065702E+04    2.3851367E+06
    1.63   500.000   -1.863E+02    2.3841556E+06   -1.1471061E+04   -1.0324010E+04    2.3841555E+06    1.0324011E+04    2.3853026E+06
    1.64   500.000   -1.870E+02    2.3861005E+06   -1.1013479E+04   -9.8768045E+03    2.3861004E+06    9.8768086E+03    2.3872371E+06
    1.65   500.000   -1.878E+02    2.3907490E+06   -1.0872347E+04   -9.7122503E+03    2.3907489E+06    9.7122575E+03    2.3919090E+06
    1.66   500.000   -1.885E+02    2.3987512E+06   -1.1029225E+04   -9.8105787E+03    2.3987511E+06    9.8105885E+03    2.3999698E+06
    1.67   500.000   -1.892E+02    2.4104239E+06   -1.1456472E+04   -1.0144158E+04    2.4104239E+06    1.0144170E+04    2.4117362E+06
    1.68   500.000   -1.899E+02    2.4257817E+06   -1.2114735E+04   -1.0675239E+04    2.4257816E+06    1.0675253E+04    2.4272211E+06
    1.69   500.000   -1.906E+02    2.4446149E+06   -1.2949786E+04   -1.1353213E+04    2.4446149E+06    1.1353227E+04    2.4462115E+06
    1.70   500.000   -1.913E+02    2.4665992E+06   -1.3891606E+04   -1.2114180E+04    2.4665992E+06    1.2114195E+04    2.4683767E+06
    1.71   500.000   -1.921E+02    2.4914015E+06   -1.4858253E+04   -1.2885197E+04    2.4914015E+06    1.2885212E+04    2.4933746E+06
    1.72   500.000   -1.928E+02    2.5187484E+06   -1.5765046E+04   -1.3593448E+04    2.5187484E+06    1.3593461E+04    2.5209200E+06
    1.73   500.000   -1.935E+02    2.5484333E+06   -1.6536774E+04   -1.4177819E+04    2.5484333E+06    1.4177831E+04    2.5507922E+06
    1.74   500.000   -1.942E+02    2.5802630E+06   -1.7118735E+04   -1.4598522E+04    2.5802630E+06    1.4598532E+04    2.5827832E+06
    1.75   500.000   -1.949E+02    2.6139694E+06   -1.7482599E+04   -1.4840892E+04    2.6139694E+06    1.4840898E+04    2.6166111E+06
    1.76   500.000   -1.956E+02    2.6491288E+06   -1.7625428E+04   -1.4912114E+04    2.6491288E+06    1.4912118E+04    2.6518422E+06
    1.77   500.000   -1.963E+02    2.6851296E+06   -1.7563319E+04   -1.4832973E+04    2.6851297E+06    1.4832972E+04    2.6878600E+06
    1.78   500.000   -1.970E+02    2.7212169E+06   -1.7323360E+04   -1.4628895E+04    2.7212170E+06    1.4628890E+04    2.7239114E+06
    1.79   500.000   -1.977E+02    2.7566193E+06   -1.6938049E+04   -1.4324702E+04    2.7566193E+06    1.4324694E+04    2.7592326E+06
    1.80   500.000   -1.984E+02    2.7907388E+06   -1.6444880E+04   -1.3945596E+04    2.7907388E+06    1.3945585E+04    2.7932381E+06
    1.81   500.000   -1.991E+02    2.8233625E+06   -1.5891204E+04   -1.3524005E+04    2.8233625E+06    1.3523989E+04    2.8257297E+06
    1.82   500.000   -1.998E+02    2.8548346E+06   -1.5341711E+04   -1.3109031E+04    2.8548347E+06    1.3109014E+04    2.8570673E+06
    1.83   500.000   -2.005E+02    2.8861319E+06   -1.4883731E+04   -1.2773368E+04    2.8861319E+06    1.2773348E+04    2.8882423E+06
    1.84   500.000   -2.012E+02    2.9187964E+06   -1.4625230E+04   -1.2612331E+04    2.9187965E+06    1.2612309E+04    2.9208094E+06
    1.85   500.000   -2.019E+02    2.9547224E+06   -1.4682225E+04   -1.2731841E+04    2.9547224E+06    1.2731817E+04    2.9566728E+06
    1.86   500.000   -2.027E+02    2.9958317E+06   -1.5156526E+04   -1.3226379E+04    2.9958317E+06    1.3226354E+04    2.9977618E+06
    1.87   500.000   -2.034E+02    3.0437093E+06   -1.6109653E+04   -1.4152913E+04    3.0437093E+06    1.4152886E+04    3.0456661E+06
    1.88   500.000   -2.041E+02    3.0992809E+06   -1.7542083E+04   -1.5510073E+04    3.0992809E+06    1.5510045E+04    3.1013129E+06
    1.89   500.000   -2.048E+02    3.1626043E+06   -1.9386505E+04   -1.7231310E+04    3.1626043E+06    1.7231280E+04    3.1647595E+06
    1.90   500.000   -2.056E+02    3.2328192E+06   -2.1519085E+04   -1.9196038E+04    3.2328193E+06    1.9196006E+04    3.2351423E+06
    1.91   500.000   -2.063E+02    3.3082604E+06   -2.3785847E+04   -2.1255860E+04    3.3082604E+06    2.1255825E+04    3.3107904E+06
    1.92   500.000   -2.071E+02    3.3867054E+06   -2.6035377E+04   -2.3267033E+04    3.3867054E+06    2.3266996E+04    3.3894737E+06
    1.93   500.000   -2.078E+02    3.4657003E+06   -2.8147082E+04   -2.5118418E+04    3.4657003E+06    2.5118378E+04    3.4687290E+06
    1.94   500.000   -2.086E+02    3.5428950E+06   -3.0047181E+04   -2.6747049E+04    3.5428949E+06    2.6747006E+04    3.5461951E+06
    1.95   500.000   -2.094E+02    3.6163305E+06   -3.1710719E+04   -2.8139606E+04    3.6163305E+06    2.8139560E+04    3.6199016E+06
    1.96   500.000   -2.102E+02    3.6846497E+06   -3.3153652E+04   -2.9323787E+04    3.6846497E+06    2.9323739E+04    3.6884796E+06
    1.97   500.000   -2.110E+02    3.7472292E+06   -3.4421140E+04   -3.0355672E+04    3.7472292E+06    3.0355623E+04    3.7512947E+06
    1.98   500.000   -2.118E+02    3.8042554E+06   -3.5576076E+04   -3.1307148E+04    3.8042554E+06    3.1307097E+04    3.8085243E+06
    1.99   500.000   -2.126E+02    3.8567600E+06   -3.6688324E+04   -3.2253981E+04    3.8567599E+06    3.2253929E+04    3.8611943E+06
    2.00   500.000   -2.134E+02    3.9066133E+06   -3.7823413E+04   -3.3263626E+04    3.9066133E+06    3.3263573E+04    3.9111731E+06
    2.01   500.000   -2.142E+02    3.9564484E+06   -3.9030910E+04   -3.4383296E+04    3.9564484E+06    3.4383243E+04    3.9610960E+06
    2.02   500.000   -2.150E+02    4.0094828E+06   -4.0335075E+04   -3.5631156E+04    4.0094827E+06    3.5631104E+04    4.0141866E+06
    2.03   500.000   -2.159E+02    4.0692215E+06   -4.1730956E+04   -3.6993726E+04    4.0692215E+06    3.6993675E+04    4.0739587E+06
    2.04   500.000   -2.167E+02    4.1390621E+06   -4.3186897E+04   -3.8430080E+04    4.1390620E+06    3.8430030E+04    4.1438189E+06
    2.05   500.000   -2.175E+02    4.2218594E+06   -4.4651509E+04   -3.9880308E+04    4.2218594E+06    3.9880258E+04    4.2266306E+06
    2.06   500.000   -2.183E+02    4.3195358E+06   -4.6061996E+04   -4.1274581E+04    4.3195358E+06    4.1274533E+04    4.3243232E+06
    2.07   500.000   -2.191E+02    4.4328122E+06   -4.7351993E+04   -4.2540831E+04    4.4328122E+06    4.2540784E+04    4.4376234E+06
    2.08   500.000   -2.200E+02    4.5611040E+06   -4.8459391E+04   -4.3611781E+04    4.5611040E+06    4.3611735E+04    4.5659516E+06
    2.09   500.000   -2.208E+02    4.7025804E+06   -4.9335613E+04   -4.4433432E+04    4.7025803E+06    4.4433388E+04    4.7074825E+06
    2.10   500.000   -2.216E+02    4.8543566E+06   -4.9956434E+04   -4.4975699E+04    4.8543565E+06    4.4975657E+04    4.8593373E+06
    2.11   500.000   -2.224E+02    5.0127797E+06   -5.0331360E+04   -4.5242489E+04    5.0127796E+06    4.5242449E+04    5.0178685E+06
    2.12   500.000   -2.232E+02    5.1737782E+06   -5.0506453E+04   -4.5275908E+04    5.1737782E+06    4.5275869E+04    5.1790087E+06
    2.13   500.000   -2.240E+02    5.3332516E+06   -5.0556678E+04   -4.5150063E+04    5.3332516E+06    4.5150027E+04    5.3386582E+06
    2.14   500.000   -2.248E+02    5.4874661E+06   -5.0568394E+04   -4.4954431E+04    5.4874661E+06    4.4954397E+04    5.4930801E+06
    2.15   500.000   -2.256E+02    5.6334078E+06   -5.0617817E+04   -4.4772161E+04    5.6334077E+06    4.4772130E+04    5.6392534E+06
    2.16   500.000   -2.264E+02    5.7690324E+06   -5.0753718E+04   -4.4661551E+04    5.7690324E+06    4.4661521E+04    5.7751245E+06
    2.17   500.000   -2.272E+02    5.8933668E+06   -5.0990766E+04   -4.4647477E+04    5.8933668E+06    4.4647450E+04    5.8997101E+06
    2.18   500.000   -2.280E+02    6.0064493E+06   -5.1315280E+04   -4.4725167E+04    6.0064492E+06    4.4725141E+04    6.0130393E+06
    2.19   500.000   -2.288E+02    6.1091459E+06   -5.1700046E+04   -4.4873567E+04    6.1091458E+06    4.4873544E+04    6.1159723E+06
    2.20   500.000   -2.296E+02    6.2029128E+06   -5.2121525E+04   -4.5072027E+04    6.2029128E+06    4.5072005E+04    6.2099623E+06
    2.21   500.000   -2.303E+02    6.2895787E+06   -5.2572126E+04   -4.5312970E+04    6.2895786E+06    4.5312950E+04    6.2968378E+06
    2.22   500.000   -2.311E+02    6.3711932E+06   -5.3062564E+04   -4.5605333E+04    6.3711931E+06    4.5605313E+04    6.3786504E+06
    2.23   500.000   -2.318E+02    6.4499416E+06   -5.3613951E+04   -4.5967952E+04    6.4499416E+06    4.5967933E+04    6.4575876E+06
    2.24   500.000   -2.325E+02    6.5280821E+06   -5.4244155E+04   -4.6417013E+04    6.5280821E+06    4.6416995E+04    6.5359092E+06
    2.25   500.000   -2.333E+02    6.6078507E+06   -5.4955476E+04   -4.6954301E+04    6.6078507E+06    4.6954284E+04    6.6158518E+06
    2.26   500.000   -2.340E+02    6.6912977E+06   -5.5729477E+04   -4.7562016E+04    6.6912977E+06    4.7561999E+04    6.6994651E+06
    2.27   500.000   -2.347E+02    6.7800622E+06   -5.6530681E+04   -4.8206042E+04    6.7800622E+06    4.8206025E+04    6.7883868E+06
    2.28   500.000   -2.354E+02    6.8751280E+06   -5.7316672E+04   -4.8845539E+04    6.8751279E+06    4.8845523E+04    6.8835991E+06
    2.29   500.000   -2.361E+02    6.9766206E+06   -5.8050267E+04   -4.9444836E+04    6.9766205E+06    4.9444821E+04    6.9852260E+06
    2.30   500.000   -2.368E+02    7.0836986E+06   -5.8710181E+04   -4.9984131E+04    7.0836986E+06    4.9984117E+04    7.0924246E+06
    2.31   500.000   -2.375E+02    7.1945697E+06   -5.9298344E+04   -5.0466988E+04    7.1945696E+06    5.0466975E+04    7.2034010E+06
    2.32   500.000   -2.382E+02    7.3066385E+06   -5.9842803E+04   -5.0923221E+04    7.3066384E+06    5.0923210E+04    7.3155580E+06
    2.33   500.000   -2.389E+02    7.4167637E+06   -6.0394705E+04   -5.1405434E+04    7.4167636E+06    5.1405423E+04    7.4257528E+06
    2.34   500.000   -2.397E+02    7.5215645E+06   -6.1017462E+04   -5.1977396E+04    7.5215644E+06    5.1977387E+04    7.5306045E+06
    2.35   500.000   -2.404E+02    7.6176994E+06   -6.1767680E+04   -5.2694227E+04    7.6176992E+06    5.2694219E+04    7.6267727E+06
    2.36   500.000   -2.411E+02    7.7020481E+06   -6.2671147E+04   -5.3578158E+04    7.7020480E+06    5.3578152E+04    7.7111410E+06
    2.37   500.000   -2.418E+02    7.7717902E+06   -6.3701701E+04   -5.4597911E+04    7.7717900E+06    5.4597906E+04    7.7808938E+06
    2.38   500.000   -2.426E+02    7.8244367E+06   -6.4773434E+04   -5.5661951E+04    7.8244365E+06    5.5661948E+04    7.8335480E+06
    2.39   500.000   -2.433E+02    7.8579241E+06   -6.5754935E+04   -5.6633816E+04    7.8579239E+06    5.6633815E+04    7.8670450E+06
    2.40   500.000   -2.440E+02    7.8708613E+06   -6.6507091E+04   -5.7370566E+04    7.8708611E+06    5.7370567E+04    7.8799976E+06
    2.41   500.000   -2.448E+02    7.8629504E+06   -6.6935041E+04   -5.7774789E+04    7.8629502E+06    5.7774791E+04    7.8721104E+06
    2.42   500.000   -2.455E+02    7.8354903E+06   -6.7035042E+04   -5.7841193E+04    7.8354901E+06    5.7841197E+04    7.8446840E+06
    2.43   500.000   -2.462E+02    7.7917798E+06   -6.6914543E+04   -5.7676553E+04    7.7917796E+06    5.7676559E+04    7.8010176E+06
    2.44   500.000   -2.470E+02    7.7372061E+06   -6.6772092E+04   -5.7479927E+04    7.7372060E+06    5.7479935E+04    7.7464981E+06
    2.45   500.000   -2.477E+02    7.6788699E+06   -6.6840058E+04   -5.7486096E+04    7.6788698E+06    5.7486106E+04    7.6882238E+06
    2.46   500.000   -2.484E+02    7.6247427E+06   -6.7309832E+04   -5.7891545E+04    7.6247426E+06    5.7891557E+04    7.6341609E+06
    2.47   500.000   -2.491E+02    7.5825239E+06   -6.8267840E+04   -5.8790895E+04    7.5825238E+06    5.8790908E+04    7.5920008E+06
    2.48   500.000   -2.498E+02    7.5584885E+06   -6.9667179E+04   -6.0148313E+04    7.5584885E+06    6.0148328E+04    7.5680074E+06
    2.49   500.000   -2.505E+02    7.5566289E+06   -7.1345621E+04   -6.1814514E+04    7.5566289E+06    6.1814531E+04    7.5661600E+06
    2.50   500.000   -2.512E+02    7.5782949E+06   -7.3082403E+04   -6.3581858E+04    7.5782949E+06    6.3581876E+04    7.5877955E+06
    2.51   500.000   -2.519E+02    7.6223695E+06   -7.4671819E+04   -6.5255802E+04    7.6223695E+06    6.5255823E+04    7.6317855E+06
    2.52   500.000   -2.525E+02    7.6858614E+06   -7.5986703E+04   -6.6716257E+04    7.6858614E+06    6.6716280E+04    7.6951319E+06
    2.53   500.000   -2.532E+02    7.7647037E+06   -7.7010355E+04   -6.7947879E+04    7.7647037E+06    6.7947904E+04    7.7737662E+06
    2.54   500.000   -2.539E+02    7.8545329E+06   -7.7827488E+04   -6.9030288E+04    7.8545329E+06    6.9030316E+04    7.8633301E+06
    2.55   500.000   -2.545E+02    7.9512735E+06   -7.8578538E+04   -7.0092650E+04    7.9512736E+06    7.0092681E+04    7.9597595E+06
    2.56   500.000   -2.552E+02    8.0514362E+06   -7.9393171E+04   -7.1248316E+04    8.0514363E+06    7.1248350E+04    8.0595811E+06
    2.57   500.000   -2.559E+02    8.1521366E+06   -8.0325780E+04   -7.2532008E+04    8.1521366E+06    7.2532046E+04    8.1599304E+06
    2.58   500.000   -2.565E+02    8.2509226E+06   -8.1316190E+04   -7.3862509E+04    8.2509226E+06    7.3862552E+04    8.2583763E+06
    2.59   500.000   -2.572E+02    8.3455409E+06   -8.2191410E+04   -7.5046472E+04    8.3455410E+06    7.5046518E+04    8.3526859E+06
    2.60   500.000   -2.578E+02    8.4337673E+06   -8.2709935E+04   -7.5824661E+04    8.4337673E+06    7.5824711E+04    8.4406526E+06
    2.61   500.000   -2.584E+02    8.5133706E+06   -8.2633427E+04   -7.5945272E+04    8.5133706E+06    7.5945324E+04    8.5200588E+06
    2.62   500.000   -2.591E+02    8.5822033E+06   -8.1798738E+04   -7.5237102E+04    8.5822033E+06    7.5237157E+04    8.5887650E+06
    2.63   500.000   -2.597E+02    8.6383366E+06   -8.0162319E+04   -7.3654547E+04    8.6383366E+06    7.3654603E+04    8.6448444E+06
    2.64   500.000   -2.603E+02    8.6801384E+06   -7.7800142E+04   -7.1277587E+04    8.6801384E+06    7.1277643E+04    8.6866609E+06
    2.65   500.000   -2.609E+02    8.7062305E+06   -7.4864063E+04   -6.8267871E+04    8.7062305E+06    6.8267927E+04    8.7128267E+06
    2.66   500.000   -2.615E+02    8.7153421E+06   -7.1511432E+04   -6.4797896E+04    8.7153421E+06    6.4797949E+04    8.7220556E+06
    2.67   500.000   -2.620E+02    8.7061457E+06   -6.7832313E+04   -6.0977602E+04    8.7061457E+06    6.0977651E+04    8.7130004E+06
    2.68   500.000   -2.626E+02    8.6771814E+06   -6.3797064E+04   -5.6800927E+04    8.6771813E+06    5.6800972E+04    8.6841775E+06
    2.69   500.000   -2.632E+02    8.6269371E+06   -5.9240018E+04   -5.2127574E+04    8.6269371E+06    5.2127614E+04    8.6340495E+06
    2.70   500.000   -2.637E+02    8.5540946E+06   -5.3885610E+04   -4.6706070E+04    8.5540945E+06    4.6706104E+04    8.5612741E+06
    2.71   500.000   -2.642E+02    8.4578872E+06   -4.7412705E+04   -4.0234048E+04    8.4578871E+06    4.0234074E+04    8.4650658E+06
    2.72   500.000   -2.647E+02    8.3384797E+06   -3.9541535E+04   -3.2441009E+04    8.3384796E+06    3.2441028E+04    8.3455802E+06
    2.73   500.000   -2.652E+02    8.1972655E+06   -3.0119230E+04   -2.3170833E+04    8.1972655E+06    2.3170843E+04    8.2042139E+06
    2.74   500.000   -2.657E+02    8.0369953E+06   -1.9179589E+04   -1.2440782E+04    8.0369953E+06    1.2440785E+04    8.0437341E+06
    2.75   500.000   -2.661E+02    7.8616990E+06   -6.9630296E+03   -4.6334496E+02    7.8616990E+06    4.6333875E+02    7.8681986E+06
    2.76   500.000   -2.666E+02    7.6764264E+06    6.1008419E+03    1.2367222E+04    7.6764264E+06   -1.2367237E+04    7.6826928E+06
    2.77   500.000   -2.670E+02    7.4868723E+06    1.9432476E+04    2.5509261E+04    7.4868722E+06   -2.5509283E+04    7.4929490E+06
    2.78   500.000   -2.674E+02    7.2989620E+06    3.2346254E+04    3.8313053E+04    7.2989619E+06   -3.8313083E+04    7.3049287E+06
    2.79   500.000   -2.679E+02    7.1184570E+06    4.4091717E+04    5.0058689E+04    7.1184569E+06   -5.0058726E+04    7.1244239E+06
    2.80   500.000   -2.683E+02    6.9506160E+06    5.3898094E+04    5.9998634E+04    6.9506160E+06   -5.9998678E+04    6.9567165E+06
    2.81   500.000   -2.687E+02    6.7999361E+06    6.1034211E+04    6.7416868E+04    6.7999361E+06   -6.7416918E+04    6.8063187E+06
    2.82   500.000   -2.691E+02    6.6699787E+06    6.4889997E+04    7.1710418E+04    6.6699786E+06   -7.1710475E+04    6.6767990E+06
    2.83   500.000   -2.694E+02    6.5632645E+06    6.5071123E+04    7.2484461E+04    6.5632644E+06   -7.2484524E+04    6.5706778E+06
    2.84   500.000   -2.698E+02    6.4811913E+06    6.1483762E+04    6.9637695E+04    6.4811912E+06   -6.9637764E+04    6.4893451E+06
    2.85   500.000   -2.702E+02    6.4239216E+06    5.4381129E+04    6.3409461E+04    6.4239215E+06   -6.3409537E+04    6.4329498E+06
    2.86   500.000   -2.706E+02    6.3902179E+06    4.4351399E+04    5.4368000E+04    6.3902178E+06   -5.4368083E+04    6.4002344E+06
    2.87   500.000   -2.710E+02    6.3772533E+06    3.2244595E+04    4.3337292E+04    6.3772532E+06   -4.3337381E+04    6.3883459E+06
    2.88   500.000   -2.714E+02    6.3804841E+06    1.9055457E+04    3.1279446E+04    6.3804840E+06   -3.1279541E+04    6.3927079E+06
    2.89   500.000   -2.718E+02    6.3936995E+06    5.7910595E+03    1.9161762E+04    6.3936994E+06   -1.9161863E+04    6.4070701E+06
    2.90   500.000   -2.722E+02    6.4093497E+06   -6.6480033E+03    7.8380012E+03    6.4093496E+06   -7.8381068E+03    6.4238356E+06
    2.91   500.000   -2.726E+02    6.4191974E+06   -1.7553556E+04   -2.0357812E+03    6.4191973E+06    2.0356723E+03    6.4347151E+06
    2.92   500.000   -2.730E+02    6.4152527E+06   -2.6456112E+04   -1.0043341E+04    6.4152526E+06    1.0043230E+04    6.4316653E+06
    2.93   500.000   -2.734E+02    6.3908568E+06   -3.3134514E+04   -1.6011505E+04    6.3908567E+06    1.6011394E+04    6.4079797E+06
    2.94   500.000   -2.738E+02    6.3417080E+06   -3.7596783E+04   -1.9983863E+04    6.3417079E+06    1.9983754E+04    6.3593208E+06
    2.95   500.000   -2.742E+02    6.2665934E+06   -4.0041031E+04   -2.2176088E+04    6.2665933E+06    2.2175982E+04    6.2844582E+06
    2.96   500.000   -2.746E+02    6.1676292E+06   -4.0804939E+04   -2.2923516E+04    6.1676292E+06    2.2923415E+04    6.1855106E+06
    2.97   500.000   -2.750E+02    6.0499167E+06   -4.0311575E+04   -2.2629599E+04    6.0499166E+06    2.2629504E+04    6.0675986E+06
    2.98   500.000   -2.754E+02    5.9206664E+06   -3.9017994E+04   -2.1720608E+04    5.9206663E+06    2.1720520E+04    5.9379637E+06
    2.99   500.000   -2.758E+02    5.7879826E+06   -3.7370432E+04   -2.0607980E+04    5.7879825E+06    2.0607900E+04    5.8047450E+06
    3.00   500.000   -2.762E+02    5.6595754E+06   -3.5766604E+04   -1.9656283E+04    5.6595754E+06    1.9656210E+04    5.6756857E+06
    3.01   500.000   -2.766E+02    5.5416740E+06   -3.4523414E+04   -1.9153727E+04    5.5416740E+06    1.9153661E+04    5.5570437E+06
    3.02   500.000   -2.769E+02    5.4383499E+06   -3.3848810E+04   -1.9284194E+04    5.4383498E+06    1.9284135E+04    5.4529144E+06
    3.03   500.000   -2.773E+02    5.3513524E+06   -3.3819688E+04   -2.0103911E+04    5.3513523E+06    2.0103860E+04    5.3650681E+06
    3.04   500.000   -2.777E+02    5.2804286E+06   -3.4371851E+04   -2.1530093E+04    5.2804285E+06    2.1530048E+04    5.2932703E+06
    3.05   500.000   -2.781E+02    5.2239772E+06   -3.5310476E+04   -2.3350527E+04    5.2239771E+06    2.3350489E+04    5.2359370E+06
    3.06   500.000   -2.785E+02    5.1798104E+06   -3.6347419E+04   -2.5260298E+04    5.1798103E+06    2.5260267E+04    5.1908974E+06
    3.07   500.000   -2.789E+02    5.1458084E+06   -3.7164129E+04   -2.6924084E+04    5.1458083E+06    2.6924059E+04    5.1560484E+06
    3.08   500.000   -2.793E+02    5.1203378E+06   -3.7488406E+04   -2.8052264E+04    5.1203377E+06    2.8052246E+04    5.1297739E+06
    3.09   500.000   -2.797E+02    5.1024333E+06   -3.7164811E+04   -2.8471012E+04    5.1024332E+06    2.8471001E+04    5.1111270E+06
    3.10   500.000   -2.801E+02    5.0918395E+06   -3.6196997E+04   -2.8165028E+04    5.0918394E+06    2.8165023E+04    5.0998714E+06
    3.11   500.000   -2.805E+02    5.0890307E+06   -3.4747483E+04   -2.7278442E+04    5.0890306E+06    2.7278442E+04    5.0964997E+06
    3.12   500.000   -2.809E+02    5.0952652E+06   -3.3094230E+04   -2.6072876E+04    5.0952651E+06    2.6072883E+04    5.1022864E+06
    3.13   500.000   -2.813E+02    5.1126409E+06   -3.1558698E+04   -2.4856773E+04    5.1126408E+06    2.4856785E+04    5.1193428E+06
    3.14   500.000   -2.817E+02    5.1440499E+06   -3.0429956E+04   -2.3910148E+04    5.1440498E+06    2.3910165E+04    5.1505696E+06
    3.15   500.000   -2.821E+02    5.1929265E+06   -2.9909212E+04   -2.3429025E+04    5.1929265E+06    2.3429046E+04    5.1994067E+06
    3.16   500.000   -2.825E+02    5.2627572E+06   -3.0088774E+04   -2.3503772E+04    5.2627572E+06    2.3503797E+04    5.2693422E+06
    3.17   500.000   -2.829E+02    5.3564152E+06   -3.0964692E+04   -2.4130953E+04    5.3564151E+06    2.4130982E+04    5.3632489E+06
    3.18   500.000   -2.833E+02    5.4754683E+06   -3.2470447E+04   -2.5246479E+04    5.4754682E+06    2.5246511E+04    5.4826922E+06
    3.19   500.000   -2.837E+02    5.6196306E+06   -3.4514824E+04   -2.6763580E+04    5.6196306E+06    2.6763614E+04    5.6273818E+06
    3.20   500.000   -2.842E+02    5.7864924E+06   -3.7010291E+04   -2.8602179E+04    5.7864924E+06    2.8602216E+04    5.7949005E+06
    3.21   500.000   -2.846E+02    5.9715779E+06   -3.9885301E+04   -3.0703157E+04    5.9715779E+06    3.0703196E+04    5.9807600E+06
    3.22   500.000   -2.850E+02    6.1686876E+06   -4.3080752E+04   -3.3027530E+04    6.1686876E+06    3.3027571E+04    6.1787408E+06
    3.23   500.000   -2.854E+02    6.3704033E+06   -4.6535375E+04   -3.5544639E+04    6.3704033E+06    3.5544682E+04    6.3813940E+06
    3.24   500.000   -2.859E+02    6.5686048E+06   -5.0166866E+04   -3.8215116E+04    6.5686048E+06    3.8215162E+04    6.5805566E+06
    3.25   500.000   -2.863E+02    6.7548785E+06   -5.3856398E+04   -4.0974926E+04    6.7548785E+06    4.0974974E+04    6.7677600E+06
    3.26   500.000   -2.868E+02    6.9207817E+06   -5.7443642E+04   -4.3726607E+04    6.9207817E+06    4.3726657E+04    6.9344988E+06
    3.27   500.000   -2.873E+02    7.0580321E+06   -6.0736786E+04   -4.6342031E+04    7.0580322E+06    4.6342083E+04    7.0724269E+06
    3.28   500.000   -2.877E+02    7.1587539E+06   -6.3536625E+04   -4.8676970E+04    7.1587540E+06    4.8677024E+04    7.1736137E+06
    3.29   500.000   -2.882E+02    7.2158967E+06   -6.5667700E+04   -5.0592859E+04    7.2158968E+06    5.0592914E+04    7.2309717E+06
    3.30   500.000   -2.887E+02    7.2238450E+06   -6.7006284E+04   -5.1978332E+04    7.2238451E+06    5.1978388E+04    7.2388731E+06
    3.31   500.000   -2.892E+02    7.1791168E+06   -6.7497009E+04   -5.2764325E+04    7.1791170E+06    5.2764381E+04    7.1938496E+06
    3.32   500.000   -2.897E+02    7.0809810E+06   -6.7155862E+04   -5.2930672E+04    7.0809811E+06    5.2930728E+04    7.0952063E+06
    3.33   500.000   -2.902E+02    6.9318346E+06   -6.6063033E+04   -5.2506149E+04    6.9318347E+06    5.2506204E+04    6.9453915E+06
    3.34   500.000   -2.907E+02    6.7372501E+06   -6.4351593E+04   -5.1565498E+04    6.7372502E+06    5.1565551E+04    6.7500363E+06
    3.35   500.000   -2.912E+02    6.5056709E+06   -6.2196712E+04   -5.0225984E+04    6.5056711E+06    5.0226034E+04    6.5176418E+06
    3.36   500.000   -2.916E+02    6.2477789E+06   -5.9806745E+04   -4.8643704E+04    6.2477790E+06    4.8643752E+04    6.2589420E+06
    3.37   500.000   -2.921E+02    5.9755892E+06   -5.7414285E+04   -4.7007592E+04    5.9755893E+06    4.7007636E+04    5.9859960E+06
    3.38   500.000   -2.926E+02    5.7013688E+06   -5.5263577E+04   -4.5527883E+04    5.7013689E+06    4.5527923E+04    5.7111046E+06
    3.39   500.000   -2.931E+02    5.4365303E+06   -5.3591439E+04   -4.4416692E+04    5.4365304E+06    4.4416729E+04    5.4457052E+06
    3.40   500.000   -2.936E+02    5.1906882E+06   -5.2601914E+04   -4.3861352E+04    5.1906883E+06    4.3861385E+04    5.1994288E+06
    3.41   500.000   -2.941E+02    4.9710397E+06   -5.2438771E+04   -4.3995190E+04    4.9710398E+06    4.3995219E+04    4.9794833E+06
    3.42   500.000   -2.946E+02    4.7821438E+06   -5.3162646E+04   -4.4873161E+04    4.7821438E+06    4.4873185E+04    4.7904333E+06
    3.43   500.000   -2.951E+02    4.6260539E+06   -5.4739033E+04   -4.6459223E+04    4.6260539E+06    4.6459244E+04    4.6343337E+06
    3.44   500.000   -2.956E+02    4.5026792E+06   -5.7039694E+04   -4.8628465E+04    4.5026793E+06    4.8628482E+04    4.5110905E+06
    3.45   500.000   -2.961E+02    4.4102328E+06   -5.9855177E+04   -5.1181661E+04    4.4102328E+06    5.1181673E+04    4.4189063E+06
    3.46   500.000   -2.967E+02    4.3456735E+06   -6.2912778E+04   -5.3865976E+04    4.3456735E+06    5.3865985E+04    4.3547203E+06
    3.47   500.000   -2.972E+02    4.3051214E+06   -6.5894599E+04   -5.6395410E+04    4.3051214E+06    5.6395416E+04    4.3146206E+06
    3.48   500.000   -2.977E+02    4.2842689E+06   -6.8454640E+04   -5.8468550E+04    4.2842689E+06    5.8468552E+04    4.2942550E+06
    3.49   500.000   -2.982E+02    4.2788077E+06   -7.0239436E+04   -5.9786965E+04    4.2788077E+06    5.9786964E+04    4.2892602E+06
    3.50   500.000   -2.988E+02    4.2848448E+06   -7.0919098E+04   -6.0080605E+04    4.2848448E+06    6.0080601E+04    4.2956833E+06
    3.51   500.000   -2.993E+02    4.2992334E+06   -7.0231409E+04   -5.9143482E+04    4.2992334E+06    5.9143475E+04    4.3103214E+06
    3.52   500.000   -2.999E+02    4.3197368E+06   -6.8032059E+04   -5.6874660E+04    4.3197368E+06    5.6874651E+04    4.3308942E+06
    3.53   500.000   -3.004E+02    4.3449792E+06   -6.4335335E+04   -5.3311532E+04    4.3449792E+06    5.3311522E+04    4.3560030E+06
    3.54   500.000   -3.010E+02    4.3742175E+06   -5.9328020E+04   -4.8640498E+04    4.3742175E+06    4.8640486E+04    4.3849051E+06
    3.55   500.000   -3.015E+02    4.4070291E+06   -5.3347227E+04   -4.3176665E+04    4.4070291E+06    4.3176654E+04    4.4171997E+06
    3.56   500.000   -3.021E+02    4.4430427E+06   -4.6826210E+04   -3.7315613E+04    4.4430426E+06    3.7315601E+04    4.4525532E+06
    3.57   500.000   -3.026E+02    4.4818142E+06   -4.0223433E+04   -3.1470186E+04    4.4818142E+06    3.1470175E+04    4.4905674E+06
    3.58   500.000   -3.032E+02    4.5228836E+06   -3.3953812E+04   -2.6008859E+04    4.5228836E+06    2.6008850E+04    4.5308286E+06
    3.59   500.000   -3.038E+02    4.5659697E+06   -2.8336662E+04   -2.1208675E+04    4.5659697E+06    2.1208667E+04    4.5730977E+06
    3.60   500.000   -3.043E+02    4.6112012E+06   -2.3566566E+04   -1.7228682E+04    4.6112012E+06    1.7228677E+04    4.6175391E+06
    3.61   500.000   -3.049E+02    4.6592619E+06   -1.9706280E+04   -1.4103550E+04    4.6592619E+06    1.4103549E+04    4.6648646E+06
    3.62   500.000   -3.055E+02    4.7113505E+06   -1.6697594E+04   -1.1754034E+04    4.7113505E+06    1.1754036E+04    4.7162940E+06
    3.63   500.000   -3.060E+02    4.7689101E+06   -1.4385859E+04   -1.0010642E+04    4.7689101E+06    1.0010648E+04    4.7732853E+06
    3.64   500.000   -3.066E+02    4.8331538E+06   -1.2554381E+04   -8.6470614E+03    4.8331538E+06    8.6470717E+03    4.8370611E+06
    3.65   500.000   -3.071E+02    4.9044860E+06   -1.0964480E+04   -7.4192825E+03    4.9044860E+06    7.4192971E+03    4.9080312E+06
    3.66   500.000   -3.077E+02    4.9819780E+06   -9.3961455E+03   -6.1054606E+03    4.9819780E+06    6.1054794E+03    4.9852687E+06
    3.67   500.000   -3.082E+02    5.0630825E+06   -7.6838075E+03   -4.5411251E+03    5.0630825E+06    4.5411474E+03    5.0662252E+06
    3.68   500.000   -3.087E+02    5.1437363E+06   -5.7421629E+03   -2.6447563E+03    5.1437363E+06    2.6447815E+03    5.1468337E+06
    3.69   500.000   -3.093E+02    5.2189075E+06   -3.5777570E+03   -4.2949113E+02    5.2189075E+06    4.2951843E+02    5.2220558E+06
    3.70   500.000   -3.098E+02    5.2835032E+06   -1.2833056E+03    2.0020835E+03    5.2835031E+06   -2.0020550E+03    5.2867885E+06
    3.71   500.000   -3.103E+02    5.3334232E+06    9.8562135E+02    4.4805718E+03    5.3334231E+06   -4.4805430E+03    5.3369181E+06
    3.72   500.000   -3.108E+02    5.3664755E+06    3.0475390E+03    6.8061069E+03    5.3664755E+06   -6.8060784E+03    5.3702340E+06
    3.73   500.000   -3.113E+02    5.3828940E+06    4.7367917E+03    8.7899630E+03    5.3828940E+06   -8.7899353E+03    5.3869472E+06
    3.74   500.000   -3.117E+02    5.3853185E+06    5.9387293E+03    1.0290501E+04    5.3853185E+06   -1.0290474E+04    5.3896702E+06
    3.75   500.000   -3.122E+02    5.3782597E+06    6.6085782E+03    1.1234014E+04    5.3782597E+06   -1.1233988E+04    5.3828851E+06
    3.76   500.000   -3.127E+02    5.3672122E+06    6.7697569E+03    1.1616220E+04    5.3672122E+06   -1.1616194E+04    5.3720586E+06
    3.77   500.000   -3.131E+02    5.3576462E+06    6.4943587E+03    1.1486660E+04    5.3576462E+06   -1.1486634E+04    5.3626385E+06
    3.78   500.000   -3.135E+02    5.3540931E+06    5.8740933E+03    1.0923418E+04    5.3540932E+06   -1.0923392E+04    5.3591425E+06
    3.79   500.000   -3.139E+02    5.3594684E+06    4.9922864E+03    1.0007729E+04    5.3594684E+06   -1.0007703E+04    5.3644839E+06
    3.80   500.000   -3.143E+02    5.3746992E+06    3.9063238E+03    8.8070624E+03    5.3746992E+06   -8.8070343E+03    5.3796000E+06
    3.81   500.000   -3.147E+02    5.3986754E+06    2.6459711E+03    7.3718844E+03    5.3986754E+06   -7.3718551E+03    5.4034014E+06
    3.82   500.000   -3.151E+02    5.4285218E+06    1.2271450E+03    5.7461626E+03    5.4285219E+06   -5.7461321E+03    5.4330410E+06
    3.83   500.000   -3.155E+02    5.4601692E+06   -3.2599592E+02    3.9853863E+03    5.4601693E+06   -3.9853550E+03    5.4644807E+06
    3.84   500.000   -3.159E+02    5.4891451E+06   -1.9629777E+03    2.1707792E+03    5.4891452E+06   -2.1707475E+03    5.4932790E+06
    3.85   500.000   -3.162E+02    5.5114349E+06   -3.6053464E+03    4.0802169E+02    5.5114351E+06   -4.0798993E+02    5.5154484E+06
    3.86   500.000   -3.166E+02    5.5242143E+06   -5.1666275E+03   -1.1944755E+03    5.5242144E+06    1.1945068E+03    5.5281866E+06
    3.87   500.000   -3.170E+02    5.5262833E+06   -6.5874598E+03   -2.5614243E+03    5.5262835E+06    2.5614548E+03    5.5303095E+06
    3.88   500.000   -3.173E+02    5.5181393E+06   -7.8701012E+03   -3.6851585E+03    5.5181395E+06    3.6851878E+03    5.5223244E+06
    3.89   500.000   -3.177E+02    5.5017466E+06   -9.0953910E+03   -4.6421552E+03    5.5017468E+06    4.6421832E+03    5.5062000E+06
    3.90   500.000   -3.180E+02    5.4801385E+06   -1.0413008E+04   -5.5825511E+03    5.4801387E+06    5.5825778E+03    5.4849691E+06
    3.91   500.000   -3.183E+02    5.4569858E+06   -1.2008011E+04   -6.6955859E+03    5.4569859E+06    6.6956115E+03    5.4622984E+06
    3.92   500.000   -3.187E+02    5.4362097E+06   -1.4057042E+04   -8.1641989E+03    5.4362098E+06    8.1642235E+03    5.4421026E+06
    3.93   500.000   -3.190E+02    5.4216569E+06   -1.6691559E+04   -1.0126100E+04    5.4216570E+06    1.0126124E+04    5.4282225E+06
    3.94   500.000   -3.193E+02    5.4168243E+06   -1.9981720E+04   -1.2655149E+04    5.4168243E+06    1.2655173E+04    5.4241509E+06
    3.95   500.000   -3.196E+02    5.4246158E+06   -2.3945096E+04   -1.5767828E+04    5.4246159E+06    1.5767852E+04    5.4327931E+06
    3.96   500.000   -3.199E+02    5.4471297E+06   -2.8573911E+04   -1.9449310E+04    5.4471298E+06    1.9449335E+04    5.4562544E+06
    3.97   500.000   -3.202E+02    5.4854775E+06   -3.3867473E+04   -2.3686598E+04    5.4854775E+06    2.3686624E+04    5.4956584E+06
    3.98   500.000   -3.205E+02    5.5396411E+06   -3.9855035E+04   -2.8494287E+04    5.5396412E+06    2.8494313E+04    5.5510019E+06
    3.99   500.000   -3.208E+02    5.6083710E+06   -4.6597678E+04   -3.3921278E+04    5.6083710E+06    3.3921305E+04    5.6210474E+06
    4.00   500.000   -3.211E+02    5.6891274E+06   -5.4164131E+04   -4.0032547E+04    5.6891274E+06    4.0032575E+04    5.7032590E+06
    4.01   500.000   -3.214E+02    5.7780712E+06   -6.2583826E+04   -4.6868027E+04    5.7780711E+06    4.6868056E+04    5.7937869E+06
    4.02   500.000   -3.216E+02    5.8701164E+06   -7.1790101E+04   -5.4390088E+04    5.8701163E+06    5.4390117E+04    5.8875163E+06
    4.03   500.000   -3.219E+02    5.9590642E+06   -8.1574742E+04   -6.2439250E+04    5.9590641E+06    6.2439278E+04    5.9781996E+06
    4.04   500.000   -3.222E+02    6.0378409E+06   -9.1576722E+04   -7.0719677E+04    6.0378408E+06    7.0719703E+04    6.0586979E+06
    4.05   500.000   -3.224E+02    6.0988615E+06   -1.0131873E+05   -7.8827573E+04    6.0988614E+06    7.8827596E+04    6.1213525E+06
    4.06   500.000   -3.227E+02    6.1345307E+06   -1.1028663E+05   -8.6318681E+04    6.1345306E+06    8.6318702E+04    6.1584986E+06
    4.07   500.000   -3.229E+02    6.1378765E+06   -1.1802787E+05   -9.2793721E+04    6.1378764E+06    9.2793739E+04    6.1631106E+06
    4.08   500.000   -3.232E+02    6.1032717E+06   -1.2423516E+05   -9.7972114E+04    6.1032716E+06    9.7972128E+04    6.1295346E+06
    4.09   500.000   -3.234E+02    6.0271563E+06   -1.2878676E+05   -1.0172916E+05    6.0271562E+06    1.0172917E+05    6.0542138E+06
    4.10   500.000   -3.237E+02    5.9086268E+06   -1.3173267E+05   -1.0408717E+05    5.9086267E+06    1.0408718E+05    5.9362722E+06
    4.11   500.000   -3.240E+02    5.7497436E+06   -1.3323674E+05   -1.0516925E+05    5.7497435E+06    1.0516925E+05    5.7778110E+06
    4.12   500.000   -3.242E+02    5.5554495E+06   -1.3350149E+05   -1.0513775E+05    5.5554494E+06    1.0513775E+05    5.5838131E+06
    4.13   500.000   -3.245E+02    5.3330842E+06   -1.3270579E+05   -1.0414218E+05    5.3330841E+06    1.0414219E+05    5.3616477E+06
    4.14   500.000   -3.247E+02    5.0915876E+06   -1.3097669E+05   -1.0229411E+05    5.0915876E+06    1.0229411E+05    5.1202701E+06
    4.15   500.000   -3.250E+02    4.8405606E+06   -1.2839937E+05   -9.9672383E+04    4.8405605E+06    9.9672386E+04    4.8692875E+06
    4.16   500.000   -3.252E+02    4.5893631E+06   -1.2505180E+05   -9.6348648E+04    4.5893631E+06    9.6348650E+04    4.6180662E+06
    4.17   500.000   -3.255E+02    4.3463887E+06   -1.2104097E+05   -9.2415225E+04    4.3463886E+06    9.2415226E+04    4.3750144E+06
    4.18   500.000   -3.257E+02    4.1185837E+06   -1.1651967E+05   -8.7999237E+04    4.1185836E+06    8.7999237E+04    4.1471040E+06
    4.19   500.000   -3.260E+02    3.9112188E+06   -1.1167488E+05   -8.3255740E+04    3.9112188E+06    8.3255739E+04    3.9396379E+06
    4.20   500.000   -3.263E+02    3.7278698E+06   -1.0669347E+05   -7.8344023E+04    3.7278697E+06    7.8344021E+04    3.7562192E+06
    4.21   500.000   -3.265E+02    3.5705352E+06   -1.0172229E+05   -7.3399282E+04    3.5705351E+06    7.3399279E+04    3.5988582E+06
    4.22   500.000   -3.268E+02    3.4398182E+06   -9.6840605E+04   -6.8513065E+04    3.4398182E+06    6.8513059E+04    3.4681458E+06
    4.23   500.000   -3.270E+02    3.3351178E+06   -9.2056379E+04   -6.3730663E+04    3.3351178E+06    6.3730656E+04    3.3634435E+06
    4.24   500.000   -3.273E+02    3.2548173E+06   -8.7326558E+04   -5.9065256E+04    3.2548172E+06    5.9065248E+04    3.2830785E+06
    4.25   500.000   -3.276E+02    3.1964958E+06   -8.2591813E+04   -5.4521168E+04    3.1964957E+06    5.4521158E+04    3.2245664E+06
    4.26   500.000   -3.278E+02    3.1571971E+06   -7.7811569E+04   -5.0115137E+04    3.1571971E+06    5.0115125E+04    3.1848935E+06
    4.27   500.000   -3.281E+02    3.1337715E+06   -7.2986757E+04   -4.5886229E+04    3.1337715E+06    4.5886216E+04    3.1608720E+06
    4.28   500.000   -3.284E+02    3.1232624E+06   -6.8164399E+04   -4.1891187E+04    3.1232624E+06    4.1891172E+04    3.1495356E+06
    4.29   500.000   -3.286E+02    3.1232669E+06   -6.3426683E+04   -3.8189767E+04    3.1232669E+06    3.8189750E+04    3.1485038E+06
    4.30   500.000   -3.289E+02    3.1321855E+06   -5.8873322E+04   -3.4829771E+04    3.1321854E+06    3.4829752E+04    3.1562290E+06
    4.31   500.000   -3.292E+02    3.1493002E+06   -5.4606728E+04   -3.1840708E+04    3.1493002E+06    3.1840687E+04    3.1720662E+06
    4.32   500.000   -3.295E+02    3.1746729E+06   -5.0724861E+04   -2.9238741E+04    3.1746729E+06    2.9238719E+04    3.1961590E+06
    4.33   500.000   -3.298E+02    3.2089047E+06   -4.7320225E+04   -2.7038196E+04    3.2089046E+06    2.7038172E+04    3.2291866E+06
    4.34   500.000   -3.301E+02    3.2528216E+06   -4.4479986E+04   -2.5261465E+04    3.2528215E+06    2.5261441E+04    3.2720400E+06
    4.35   500.000   -3.304E+02    3.3071444E+06   -4.2283281E+04   -2.3941425E+04    3.3071444E+06    2.3941399E+04    3.3254862E+06
    4.36   500.000   -3.307E+02    3.3721790E+06   -4.0795677E+04   -2.3115847E+04    3.3721789E+06    2.3115819E+04    3.3898588E+06
    4.37   500.000   -3.310E+02    3.4475535E+06   -4.0063591E+04   -2.2817501E+04    3.4475534E+06    2.2817473E+04    3.4647995E+06
    4.38   500.000   -3.313E+02    3.5320347E+06   -4.0111391E+04   -2.3064354E+04    3.5320346E+06    2.3064325E+04    3.5490816E+06
    4.39   500.000   -3.316E+02    3.6234708E+06   -4.0941707E+04   -2.3852379E+04    3.6234707E+06    2.3852349E+04    3.6405600E+06
    4.40   500.000   -3.319E+02    3.7189052E+06   -4.2537842E+04   -2.5151640E+04    3.7189052E+06    2.5151610E+04    3.7362914E+06
    4.41   500.000   -3.322E+02    3.8148775E+06   -4.4867607E+04   -2.6906282E+04    3.8148774E+06    2.6906252E+04    3.8328387E+06
    4.42   500.000   -3.325E+02    3.9078720E+06   -4.7889623E+04   -2.9040168E+04    3.9078719E+06    2.9040139E+04    3.9267214E+06
    4.43   500.000   -3.329E+02    3.9948292E+06   -5.1563309E+04   -3.1469661E+04    3.9948291E+06    3.1469632E+04    4.0149227E+06
    4.44   500.000   -3.332E+02    4.0736158E+06   -5.5860920E+04   -3.4121835E+04    4.0736158E+06    3.4121807E+04    4.0953548E+06
    4.45   500.000   -3.335E+02    4.1433768E+06   -6.0775685E+04   -3.6951795E+04    4.1433767E+06    3.6951769E+04    4.1672006E+06
    4.46   500.000   -3.338E+02    4.2047315E+06   -6.6318399E+04   -3.9950620E+04    4.2047314E+06    3.9950595E+04    4.2310992E+06
    4.47   500.000   -3.341E+02    4.2598155E+06   -7.2498271E+04   -4.3138353E+04    4.2598154E+06    4.3138329E+04    4.2891754E+06
    4.48   500.000   -3.344E+02    4.3121783E+06   -7.9291325E+04   -4.6543353E+04    4.3121782E+06    4.6543330E+04    4.3449262E+06
    4.49   500.000   -3.347E+02    4.3665540E+06   -8.6606850E+04   -5.0175997E+04    4.3665538E+06    5.0175975E+04    4.4029847E+06
    4.50   500.000   -3.351E+02    4.4285251E+06   -9.4265499E+04   -5.4007558E+04    4.4285250E+06    5.4007537E+04    4.4687829E+06
    4.51   500.000   -3.354E+02    4.5041148E+06   -1.0200041E+05   -5.7963137E+04    4.5041147E+06    5.7963117E+04    4.5481519E+06
    4.52   500.000   -3.357E+02    4.5993505E+06   -1.0948609E+05   -6.1932289E+04    4.5993504E+06    6.1932270E+04    4.6469042E+06
    4.53   500.000   -3.360E+02    4.7198446E+06   -1.1639077E+05   -6.5794605E+04    4.7198445E+06    6.5794586E+04    4.7704407E+06
    4.54   500.000   -3.363E+02    4.8704219E+06   -1.2243886E+05   -6.9451748E+04    4.8704218E+06    6.9451729E+04    4.9234089E+06
    4.55   500.000   -3.367E+02    5.0548071E+06   -1.2746387E+05   -7.2853922E+04    5.0548071E+06    7.2853903E+04    5.1094170E+06
    4.56   500.000   -3.370E+02    5.2753681E+06   -1.3143285E+05   -7.6009361E+04    5.2753680E+06    7.6009343E+04    5.3307915E+06
    4.57   500.000   -3.373E+02    5.5328965E+06   -1.3443272E+05   -7.8971367E+04    5.5328964E+06    7.8971348E+04    5.5883578E+06
    4.58   500.000   -3.377E+02    5.8264222E+06   -1.3662386E+05   -8.1806987E+04    5.8264222E+06    8.1806968E+04    5.8812390E+06
    4.59   500.000   -3.380E+02    6.1530755E+06   -1.3817995E+05   -8.4560042E+04    6.1530755E+06    8.4560022E+04    6.2066954E+06
    4.60   500.000   -3.384E+02    6.5080380E+06   -1.3923713E+05   -8.7223756E+04    6.5080379E+06    8.7223736E+04    6.5600513E+06
    4.61   500.000   -3.387E+02    6.8846193E+06   -1.3986894E+05   -8.9733488E+04    6.8846192E+06    8.9733468E+04    6.9347547E+06
    4.62   500.000   -3.391E+02    7.2744715E+06   -1.4009103E+05   -9.1981331E+04    7.2744714E+06    9.1981312E+04    7.3225811E+06
    4.63   500.000   -3.394E+02    7.6679221E+06   -1.3988911E+05   -9.3847097E+04    7.6679221E+06    9.3847078E+04    7.7139641E+06
    4.64   500.000   -3.398E+02    8.0544092E+06   -1.3925877E+05   -9.5237364E+04    8.0544091E+06    9.5237348E+04    8.0984305E+06
    4.65   500.000   -3.402E+02    8.4230309E+06   -1.3824671E+05   -9.6124646E+04    8.4230309E+06    9.6124631E+04    8.4651529E+06
    4.66   500.000   -3.406E+02    8.7632572E+06   -1.3698357E+05   -9.6578847E+04    8.7632572E+06    9.6578833E+04    8.8036619E+06
    4.67   500.000   -3.410E+02    9.0658249E+06   -1.3569909E+05   -9.6781592E+04    9.0658248E+06    9.6781580E+04    9.1047423E+06
    4.68   500.000   -3.414E+02    9.3237384E+06   -1.3470960E+05   -9.7012686E+04    9.3237384E+06    9.7012675E+04    9.3614353E+06
    4.69   500.000   -3.418E+02    9.5331602E+06   -1.3437170E+05   -9.7601499E+04    9.5331601E+06    9.7601487E+04    9.5699303E+06
    4.70   500.000   -3.422E+02    9.6938926E+06   -1.3500590E+05   -9.8847215E+04    9.6938926E+06    9.8847203E+04    9.7300513E+06
    4.71   500.000   -3.426E+02    9.8092122E+06   -1.3680784E+05   -1.0092735E+05    9.8092122E+06    1.0092733E+05    9.8450927E+06
    4.72   500.000   -3.430E+02    9.8850090E+06   -1.3977498E+05   -1.0382483E+05    9.8850090E+06    1.0382481E+05    9.9209591E+06
    4.73   500.000   -3.434E+02    9.9284317E+06   -1.4367508E+05   -1.0730166E+05    9.9284316E+06    1.0730164E+05    9.9648051E+06
    4.74   500.000   -3.438E+02    9.9464135E+06   -1.4806814E+05   -1.1093055E+05    9.9464135E+06    1.1093053E+05    9.9835511E+06
    4.75   500.000   -3.442E+02    9.9444776E+06   -1.5237401E+05   -1.1417437E+05    9.9444775E+06    1.1417435E+05    9.9826772E+06
    4.76   500.000   -3.446E+02    9.9261043E+06   -1.5596387E+05   -1.1648808E+05    9.9261042E+06    1.1648806E+05    9.9655800E+06
    4.77   500.000   -3.450E+02    9.8927544E+06   -1.5825209E+05   -1.1741539E+05    9.8927544E+06    1.1741537E+05    9.9335911E+06
    4.78   500.000   -3.454E+02    9.8444586E+06   -1.5877212E+05   -1.1666013E+05    9.8444586E+06    1.1666011E+05    9.8865706E+06
    4.79   500.000   -3.458E+02    9.7807567E+06   -1.5722891E+05   -1.1412282E+05    9.7807566E+06    1.1412280E+05    9.8238627E+06
    4.80   500.000   -3.462E+02    9.7017047E+06   -1.5352617E+05   -1.0990154E+05    9.7017047E+06    1.0990152E+05    9.7453293E+06
    4.81   500.000   -3.466E+02    9.6086725E+06   -1.4776835E+05   -1.0426194E+05    9.6086724E+06    1.0426192E+05    9.6521789E+06
    4.82   500.000   -3.470E+02    9.5047283E+06   -1.4023799E+05   -9.7585195E+04    9.5047283E+06    9.7585187E+04    9.5473811E+06
    4.83   500.000   -3.473E+02    9.3945491E+06   -1.3135116E+05   -9.0304795E+04    9.3945490E+06    9.0304793E+04    9.4355954E+06
    4.84   500.000   -3.477E+02    9.2839568E+06   -1.2159699E+05   -8.2843651E+04    9.2839567E+06    8.2843656E+04    9.3227101E+06
    4.85   500.000   -3.481E+02    9.1792951E+06   -1.1147118E+05   -7.5561380E+04    9.1792951E+06    7.5561392E+04    9.2152049E+06
    4.86   500.000   -3.485E+02    9.0868570E+06   -1.0141520E+05   -6.8718643E+04    9.0868570E+06    6.8718662E+04    9.1195536E+06
    4.87   500.000   -3.488E+02    9.0124644E+06   -9.1772281E+04   -6.2462292E+04    9.0124644E+06    6.2462317E+04    9.0417744E+06
    4.88   500.000   -3.492E+02    8.9611640E+06   -8.2768057E+04   -5.6832260E+04    8.9611640E+06    5.6832289E+04    8.9870998E+06
    4.89   500.000   -3.495E+02    8.9369292E+06   -7.4518222E+04   -5.1788134E+04    8.9369292E+06    5.1788166E+04    8.9596593E+06
    4.90   500.000   -3.499E+02    8.9422917E+06   -6.7058525E+04   -4.7249201E+04    8.9422917E+06    4.7249236E+04    8.9621010E+06
    4.91   500.000   -3.502E+02    8.9779275E+06   -6.0384928E+04   -4.3136770E+04    8.9779274E+06    4.3136805E+04    8.9951756E+06
    4.92   500.000   -3.506E+02    9.0423219E+06   -5.4487607E+04   -3.9404867E+04    9.0423218E+06    3.9404901E+04    9.0574046E+06
    4.93   500.000   -3.510E+02    9.1316666E+06   -4.9365026E+04   -3.6048218E+04    9.1316665E+06    3.6048250E+04    9.1449833E+06
    4.94   500.000   -3.513E+02    9.2400931E+06   -4.5013480E+04   -3.3085081E+04    9.2400930E+06    3.3085111E+04    9.2520214E+06
    4.95   500.000   -3.517E+02    9.3602365E+06   -4.1399213E+04   -3.0523311E+04    9.3602364E+06    3.0523338E+04    9.3711123E+06
    4.96   500.000   -3.521E+02    9.4840071E+06   -3.8428460E+04   -2.8325244E+04    9.4840070E+06    2.8325269E+04    9.4941102E+06
    4.97   500.000   -3.524E+02    9.6033841E+06   -3.5931677E+04   -2.6387246E+04    9.6033840E+06    2.6387269E+04    9.6129284E+06
    4.98   500.000   -3.528E+02    9.7110642E+06   -3.3672477E+04   -2.4543657E+04    9.7110641E+06    2.4543680E+04    9.7201929E+06
    4.99   500.000   -3.532E+02    9.8008840E+06   -3.1382743E+04   -2.2596021E+04    9.8008839E+06    2.2596044E+04    9.8096706E+06
    5.00   500.000   -3.536E+02    9.8680290E+06   -2.8816361E+04   -2.0360133E+04    9.8680290E+06    2.0360157E+04    9.8764852E+06
# T(K) = 600.00   Npoints =    1001   V(cm^3) =  1.231E-20
   -5.00   600.000    3.718E+02    2.7754272E+06   -5.0410170E+04   -4.5971957E+04    2.7754272E+06    4.5971963E+04    2.7798654E+06
   -4.99   600.000    3.708E+02    2.7959797E+06   -4.9890457E+04   -4.5547774E+04    2.7959797E+06    4.5547778E+04    2.8003224E+06
   -4.98   600.000    3.699E+02    2.8163325E+06   -4.9237201E+04   -4.5018866E+04    2.8163325E+06    4.5018869E+04    2.8205509E+06
   -4.97   600.000    3.689E+02    2.8373651E+06   -4.8438228E+04   -4.4368747E+04    2.8373651E+06    4.4368749E+04    2.8414346E+06
   -4.96   600.000    3.680E+02    2.8597282E+06   -4.7474877E+04   -4.3574230E+04    2.8597282E+06    4.3574230E+04    2.8636288E+06
   -4.95   600.000    3.670E+02    2.8838226E+06   -4.6326034E+04   -4.2609591E+04    2.8838226E+06    4.2609590E+04    2.8875390E+06
   -4.94   600.000    3.661E+02    2.9097811E+06   -4.4972736E+04   -4.1451228E+04    2.9097811E+06    4.1451226E+04    2.9133026E+06
   -4.93   600.000    3.652E+02    2.9374560E+06   -4.3402724E+04   -4.0082234E+04    2.9374560E+06    4.0082230E+04    2.9407765E+06
   -4.92   600.000    3.644E+02    2.9664178E+06   -4.1614419E+04   -3.8496401E+04    2.9664179E+06    3.8496396E+04    2.9695359E+06
   -4.91   600.000    3.635E+02    2.9959747E+06   -3.9619880E+04   -3.6701256E+04    2.9959747E+06    3.6701250E+04    2.9988933E+06
   -4.90   600.000    3.626E+02    3.0252163E+06   -3.7446360E+04   -3.4719754E+04    3.0252163E+06    3.4719747E+04    3.0279429E+06
   -4.89   600.000    3.618E+02    3.0530844E+06   -3.5136171E+04   -3.2590302E+04    3.0530844E+06    3.2590294E+04    3.0556303E+06
   -4.88   600.000    3.609E+02    3.0784591E+06   -3.2744662E+04   -3.0364920E+04    3.0784591E+06    3.0364912E+04    3.0808389E+06
   -4.87   600.000    3.601E+02    3.1002492E+06   -3.0336384E+04   -2.8105544E+04    3.1002492E+06    2.8105536E+04    3.1024800E+06
   -4.86   600.000    3.593E+02    3.1174690E+06   -2.7979733E+04   -2.5878767E+04    3.1174691E+06    2.5878759E+04    3.1195700E+06
   -4.85   600.000    3.585E+02    3.1292929E+06   -2.5740715E+04   -2.3749630E+04    3.1292930E+06    2.3749622E+04    3.1312840E+06
   -4.84   600.000    3.577E+02    3.1350798E+06   -2.3676636E+04   -2.1775303E+04    3.1350799E+06    2.1775295E+04    3.1369812E+06
   -4.83   600.000    3.569E+02    3.1343734E+06   -2.1830657E+04   -1.9999591E+04    3.1343734E+06    1.9999583E+04    3.1362045E+06
   -4.82   600.000    3.561E+02    3.1268849E+06   -2.0228050E+04   -1.8449129E+04    3.1268849E+06    1.8449122E+04    3.1286639E+06
   -4.81   600.000    3.553E+02    3.1124698E+06   -1.8874772E+04   -1.7131906E+04    3.1124698E+06    1.7131899E+04    3.1142127E+06
   -4.80   600.000    3.546E+02    3.0911071E+06   -1.7758639E+04   -1.6038346E+04    3.0911071E+06    1.6038340E+04    3.0928274E+06
   -4.79   600.000    3.538E+02    3.0628858E+06   -1.6852846E+04   -1.5144725E+04    3.0628858E+06    1.5144719E+04    3.0645939E+06
   -4.78   600.000    3.530E+02    3.0279990E+06   -1.6121175E+04   -1.4418202E+04    3.0279990E+06    1.4418197E+04    3.0297020E+06
   -4.77   600.000    3.523E+02    2.9867408E+06   -1.5523861E+04   -1.3822455E+04    2.9867408E+06    1.3822449E+04    2.9884422E+06
   -4.76   600.000    3.515E+02    2.9395022E+06   -1.5023032E+04   -1.3322831E+04    2.9395022E+06    1.3322826E+04    2.9412024E+06
   -4.75   600.000    3.508E+02    2.8867625E+06   -1.4586785E+04   -1.2890141E+04    2.8867625E+06    1.2890135E+04    2.8884591E+06
   -4.74   600.000    3.500E+02    2.8290730E+06   -1.4191403E+04   -1.2502617E+04    2.8290729E+06    1.2502610E+04    2.8307617E+06
   -4.73   600.000    3.493E+02    2.7670353E+06   -1.3821619E+04   -1.2146027E+04    2.7670353E+06    1.2146020E+04    2.7687109E+06
   -4.72   600.000    3.485E+02    2.7012750E+06   -1.3469306E+04   -1.1812349E+04    2.7012750E+06    1.1812341E+04    2.7029320E+06
   -4.71   600.000    3.478E+02    2.6324130E+06   -1.3131205E+04   -1.1497618E+04    2.6324129E+06    1.1497609E+04    2.6340465E+06
   -4.70   600.000    3.471E+02    2.5610367E+06   -1.2806402E+04   -1.1199645E+04    2.5610366E+06    1.1199635E+04    2.5626434E+06
   -4.69   600.000    3.464E+02    2.4876760E+06   -1.2494162E+04   -1.0916169E+04    2.4876760E+06    1.0916159E+04    2.4892540E+06
   -4.68   600.000    3.456E+02    2.4127863E+06   -1.2192530E+04   -1.0643778E+04    2.4127862E+06    1.0643768E+04    2.4143350E+06
   -4.67   600.000    3.449E+02    2.3367423E+06   -1.1897850E+04   -1.0377682E+04    2.3367422E+06    1.0377672E+04    2.3382624E+06
   -4.66   600.000    3.442E+02    2.2598443E+06   -1.1605112E+04   -1.0112209E+04    2.2598443E+06    1.0112200E+04    2.2613372E+06
   -4.65   600.000    3.435E+02    2.1823333E+06   -1.1308835E+04   -9.8417078E+03    2.1823333E+06    9.8416985E+03    2.1838004E+06
   -4.64   600.000    3.428E+02    2.1044083E+06   -1.1004136E+04   -9.5615107E+03    2.1044083E+06    9.5615019E+03    2.1058509E+06
   -4.63   600.000    3.422E+02    2.0262405E+06   -1.0687585E+04   -9.2686208E+03    2.0262405E+06    9.2686126E+03    2.0276595E+06
   -4.62   600.000    3.415E+02    1.9479786E+06   -1.0357609E+04   -8.9619228E+03    1.9479786E+06    8.9619151E+03    1.9493743E+06
   -4.61   600.000    3.409E+02    1.8697457E+06   -1.0014365E+04   -8.6419077E+03    1.8697457E+06    8.6419007E+03    1.8711182E+06
   -4.60   600.000    3.402E+02    1.7916314E+06   -9.6592225E+03   -8.3100814E+03    1.7916314E+06    8.3100748E+03    1.7929806E+06
   -4.59   600.000    3.396E+02    1.7136864E+06   -9.2940953E+03   -7.9683228E+03    1.7136864E+06    7.9683164E+03    1.7150122E+06
   -4.58   600.000    3.390E+02    1.6359255E+06   -8.9208982E+03   -7.6184300E+03    1.6359256E+06    7.6184238E+03    1.6372280E+06
   -4.57   600.000    3.385E+02    1.5583422E+06   -8.5412411E+03   -7.2619488E+03    1.5583423E+06    7.2619426E+03    1.5596216E+06
   -4.56   600.000    3.379E+02    1.4809331E+06   -8.1563432E+03   -6.9002088E+03    1.4809331E+06    6.9002026E+03    1.4821893E+06
   -4.55   600.000    3.374E+02    1.4037274E+06   -7.7670327E+03   -6.5343998E+03    1.4037274E+06    6.5343933E+03    1.4049601E+06
   -4.54   600.000    3.369E+02    1.3268143E+06   -7.3737136E+03   -6.1655428E+03    1.3268143E+06    6.1655362E+03    1.3280225E+06
   -4.53   600.000    3.364E+02    1.2503611E+06   -6.9762833E+03   -5.7943393E+03    1.2503611E+06    5.7943325E+03    1.2515431E+06
   -4.52   600.000    3.359E+02    1.1746188E+06   -6.5740937E+03   -5.4210065E+03    1.1746188E+06    5.4209995E+03    1.1757719E+06
   -4.51   600.000    3.355E+02    1.0999127E+06   -6.1660846E+03   -5.0452620E+03    1.0999127E+06    5.0452548E+03    1.1010335E+06
   -4.50   600.000    3.350E+02    1.0266227E+06   -5.7511592E+03   -4.6665638E+03    1.0266227E+06    4.6665566E+03    1.0277073E+06
   -4.49   600.000    3.346E+02    9.5515649E+05   -5.3287564E+03   -4.2845908E+03    9.5515655E+05    4.2845836E+03    9.5620071E+05
   -4.48   600.000    3.342E+02    8.8592258E+05   -4.8994667E+03   -3.8998229E+03    8.8592263E+05    3.8998160E+03    8.8692227E+05
   -4.47   600.000    3.338E+02    8.1930750E+05   -4.4654974E+03   -3.5140212E+03    8.1930755E+05    3.5140145E+03    8.2025903E+05
   -4.46   600.000    3.334E+02    7.5566067E+05   -4.0308267E+03   -3.1304281E+03    7.5566073E+05    3.1304219E+03    7.5656112E+05
   -4.45   600.000    3.330E+02    6.9528698E+05   -3.6009855E+03   -2.7536100E+03    6.9528703E+05    2.7536043E+03    6.9613441E+05
   -4.44   600.000    3.326E+02    6.3844582E+05   -3.1825207E+03   -2.3889827E+03    6.3844587E+05    2.3889776E+03    6.3923940E+05
   -4.43   600.000    3.323E+02    5.8535359E+05   -2.7822870E+03   -2.0421678E+03    5.8535363E+05    2.0421633E+03    5.8609375E+05
   -4.42   600.000    3.319E+02    5.3618678E+05   -2.4067410E+03   -1.7183565E+03    5.3618682E+05    1.7183527E+03    5.3687521E+05
   -4.41   600.000    3.315E+02    4.9108332E+05   -2.0613805E+03   -1.4218258E+03    4.9108336E+05    1.4218226E+03    4.9172291E+05
   -4.40   600.000    3.311E+02    4.5014125E+05   -1.7503969E+03   -1.1556709E+03    4.5014129E+05    1.1556682E+03    4.5073601E+05
   -4.39   600.000    3.308E+02    4.1341476E+05   -1.4765396E+03   -9.2174478E+02    4.1341479E+05    9.2174265E+02    4.1396959E+05
   -4.38   600.000    3.304E+02    3.8090850E+05   -1.2411470E+03   -7.2074743E+02    3.8090854E+05    7.2074572E+02    3.8142894E+05
   -4.37   600.000    3.300E+02    3.5257143E+05   -1.0442840E+03   -5.5239891E+02    3.5257146E+05    5.5239751E+02    3.5306335E+05
   -4.36   600.000    3.295E+02    3.2829156E+05   -8.8493846E+02   -4.1564584E+02    3.2829158E+05    4.1564464E+02    3.2876088E+05
   -4.35   600.000    3.291E+02    3.0789307E+05   -7.6124092E+02   -3.0886869E+02    3.0789309E+05    3.0886759E+02    3.0834547E+05
   -4.34   600.000    3.286E+02    2.9113716E+05   -6.7068322E+02   -2.3007103E+02    2.9113718E+05    2.3006994E+02    2.9157779E+05
   -4.33   600.000    3.281E+02    2.7772743E+05   -6.1032036E+02   -1.7703893E+02    2.7772745E+05    1.7703777E+02    2.7816073E+05
   -4.32   600.000    3.275E+02    2.6732037E+05   -5.7694692E+02   -1.4746456E+02    2.6732039E+05    1.4746326E+02    2.6774987E+05
   -4.31   600.000    3.270E+02    2.5954033E+05   -5.6724931E+02   -1.3903541E+02    2.5954034E+05    1.3903394E+02    2.5996856E+05
   -4.30   600.000    3.263E+02    2.5399780E+05   -5.7794120E+02   -1.4949709E+02    2.5399782E+05    1.4949544E+02    2.5442626E+05
   -4.29   600.000    3.256E+02    2.5030911E+05   -6.0588936E+02   -1.7670019E+02    2.5030912E+05    1.7669835E+02    2.5073831E+05
   -4.28   600.000    3.249E+02    2.4811508E+05   -6.4822993E+02   -2.1863994E+02    2.4811510E+05    2.1863793E+02    2.4854469E+05
   -4.27   600.000    3.241E+02    2.4709641E+05   -7.0246910E+02   -2.7349479E+02    2.4709642E+05    2.7349264E+02    2.4752540E+05
   -4.26   600.000    3.233E+02    2.4698374E+05   -7.6656271E+02   -3.3967094E+02    2.4698375E+05    3.3966870E+02    2.4741064E+05
   -4.25   600.000    3.224E+02    2.4756134E+05   -8.3897809E+02   -4.1586334E+02    2.4756135E+05    4.1586106E+02    2.4798447E+05
   -4.24   600.000    3.214E+02    2.4866426E+05   -9.1875227E+02   -5.0114493E+02    2.4866427E+05    5.0114267E+02    2.4908188E+05
   -4.23   600.000    3.203E+02    2.5016990E+05   -1.0055613E+03   -5.9508771E+02    2.5016990E+05    5.9508552E+02    2.5058038E+05
   -4.22   600.000    3.192E+02    2.5198585E+05   -1.0998004E+03   -6.9789839E+02    2.5198586E+05    6.9789633E+02    2.5238776E+05
   -4.21   600.000    3.180E+02    2.5403636E+05   -1.2026436E+03   -8.1052272E+02    2.5403637E+05    8.1052085E+02    2.5442849E+05
   -4.20   600.000    3.167E+02    2.5624939E+05   -1.3160227E+03   -9.3464970E+02    2.5624940E+05    9.3464806E+02    2.5663077E+05
   -4.19   600.000    3.153E+02    2.5854643E+05   -1.4424553E+03   -1.0725465E+03    2.5854644E+05    1.0725451E+03    2.5891635E+05
   -4.18   600.000    3.137E+02    2.6083594E+05   -1.5846775E+03   -1.2266889E+03    2.6083595E+05    1.2266878E+03    2.6119393E+05
   -4.17   600.000    3.121E+02    2.6301106E+05   -1.7451014E+03   -1.3992163E+03    2.6301107E+05    1.3992155E+03    2.6335695E+05
   -4.16   600.000    3.104E+02    2.6495156E+05   -1.9251898E+03   -1.5913124E+03    2.6495157E+05    1.5913119E+03    2.6528545E+05
   -4.15   600.000    3.085E+02    2.6652946E+05   -2.1249000E+03   -1.8026634E+03    2.6652947E+05    1.8026631E+03    2.6685170E+05
   -4.14   600.000    3.064E+02    2.6761771E+05   -2.3423516E+03   -2.0311442E+03    2.6761772E+05    2.0311442E+03    2.6792893E+05
   -4.13   600.000    3.042E+02    2.6810086E+05   -2.5738226E+03   -2.2728315E+03    2.6810087E+05    2.2728316E+03    2.6840186E+05
   -4.12   600.000    3.019E+02    2.6788653E+05   -2.8140934E+03   -2.5223535E+03    2.6788653E+05    2.5223538E+03    2.6817827E+05
   -4.11   600.000    2.994E+02    2.6691644E+05   -3.0570629E+03   -2.7735045E+03    2.6691644E+05    2.7735048E+03    2.6720000E+05
   -4.10   600.000    2.967E+02    2.6517575E+05   -3.2965053E+03   -3.0199890E+03    2.6517576E+05    3.0199893E+03    2.6545228E+05
   -4.09   600.000    2.938E+02    2.6269956E+05   -3.5268133E+03   -3.2561501E+03    2.6269957E+05    3.2561504E+03    2.6297023E+05
   -4.08   600.000    2.908E+02    2.5957573E+05   -3.7435973E+03   -3.4775533E+03    2.5957573E+05    3.4775534E+03    2.5984178E+05
   -4.07   600.000    2.876E+02    2.5594349E+05   -3.9440521E+03   -3.6813407E+03    2.5594349E+05    3.6813407E+03    2.5620620E+05
   -4.06   600.000    2.842E+02    2.5198779E+05   -4.1270577E+03   -3.8663226E+03    2.5198780E+05    3.8663224E+03    2.5224853E+05
   -4.05   600.000    2.807E+02    2.4792954E+05   -4.2930288E+03   -4.0328208E+03    2.4792954E+05    4.0328204E+03    2.4818975E+05
   -4.04   600.000    2.771E+02    2.4401255E+05   -4.4435746E+03   -4.1823246E+03    2.4401256E+05    4.1823240E+03    2.4427381E+05
   -4.03   600.000    2.734E+02    2.4048850E+05   -4.5810588E+03   -4.3170516E+03    2.4048850E+05    4.3170508E+03    2.4075251E+05
   -4.02   600.000    2.697E+02    2.3760116E+05   -4.7081681E+03   -4.4395218E+03    2.3760117E+05    4.4395209E+03    2.3786981E+05
   -4.01   600.000    2.658E+02    2.3557178E+05   -4.8275826E+03   -4.5522407E+03    2.3557178E+05    4.5522396E+03    2.3584712E+05
   -4.00   600.000    2.619E+02    2.3458679E+05   -4.9418055E+03   -4.6575479E+03    2.3458679E+05    4.6575468E+03    2.3487105E+05
   -3.99   600.000    2.579E+02    2.3478903E+05   -5.0531593E+03   -4.7576363E+03    2.3478904E+05    4.7576352E+03    2.3508456E+05
   -3.98   600.000    2.538E+02    2.3627305E+05   -5.1639004E+03   -4.8546908E+03    2.3627305E+05    4.8546896E+03    2.3658226E+05
   -3.97   600.000    2.498E+02    2.3908442E+05   -5.2763736E+03   -4.9510651E+03    2.3908443E+05    4.9510639E+03    2.3940973E+05
   -3.96   600.000    2.457E+02    2.4322299E+05   -5.3931271E+03   -5.0494125E+03    2.4322299E+05    5.0494114E+03    2.4356670E+05
   -3.95   600.000    2.416E+02    2.4864936E+05   -5.5169262E+03   -5.1527096E+03    2.4864936E+05    5.1527084E+03    2.4901357E+05
   -3.94   600.000    2.375E+02    2.5529408E+05   -5.6506481E+03   -5.2641520E+03    2.5529408E+05    5.2641509E+03    2.5568057E+05
   -3.93   600.000    2.333E+02    2.6306862E+05   -5.7970750E+03   -5.3869393E+03    2.6306862E+05    5.3869382E+03    2.6347876E+05
   -3.92   600.000    2.291E+02    2.7187721E+05   -5.9586314E+03   -5.5239929E+03    2.7187721E+05    5.5239919E+03    2.7231184E+05
   -3.91   600.000    2.250E+02    2.8162818E+05   -6.1371236E+03   -5.6776624E+03    2.8162818E+05    5.6776614E+03    2.8208764E+05
   -3.90   600.000    2.208E+02    2.9224372E+05   -6.3335326E+03   -5.8494718E+03    2.9224372E+05    5.8494709E+03    2.9272778E+05
   -3.89   600.000    2.166E+02    3.0366654E+05   -6.5478990E+03   -6.0399477E+03    3.0366654E+05    6.0399469E+03    3.0417449E+05
   -3.88   600.000    2.124E+02    3.1586259E+05   -6.7793188E+03   -6.2485534E+03    3.1586258E+05    6.2485526E+03    3.1639335E+05
   -3.87   600.000    2.083E+02    3.2881929E+05   -7.0260516E+03   -6.4737439E+03    3.2881928E+05    6.4737431E+03    3.2937159E+05
   -3.86   600.000    2.041E+02    3.4253935E+05   -7.2857298E+03   -6.7131411E+03    3.4253934E+05    6.7131403E+03    3.4311193E+05
   -3.85   600.000    2.001E+02    3.5703074E+05   -7.5556461E+03   -6.9638172E+03    3.5703073E+05    6.9638164E+03    3.5762256E+05
   -3.84   600.000    1.961E+02    3.7229407E+05   -7.8330837E+03   -7.2226554E+03    3.7229406E+05    7.2226545E+03    3.7290449E+05
   -3.83   600.000    1.922E+02    3.8830916E+05   -8.1156436E+03   -7.4867374E+03    3.8830915E+05    7.4867364E+03    3.8893806E+05
   -3.82   600.000    1.884E+02    4.0502275E+05   -8.4015088E+03   -7.7536897E+03    4.0502274E+05    7.7536886E+03    4.0567056E+05
   -3.81   600.000    1.847E+02    4.2233978E+05   -8.6895873E+03   -8.0219143E+03    4.2233976E+05    8.0219129E+03    4.2300744E+05
   -3.80   600.000    1.811E+02    4.4011972E+05   -8.9794784E+03   -8.2906347E+03    4.4011971E+05    8.2906330E+03    4.4080855E+05
   -3.79   600.000    1.776E+02    4.5817894E+05   -9.2712404E+03   -8.5597228E+03    4.5817893E+05    8.5597208E+03    4.5889045E+05
   -3.78   600.000    1.743E+02    4.7629806E+05   -9.5649710E+03   -8.8293138E+03    4.7629805E+05    8.8293115E+03    4.7703371E+05
   -3.77   600.000    1.712E+02    4.9423254E+05   -9.8602622E+03   -9.0992720E+03    4.9423252E+05    9.0992692E+03    4.9499351E+05
   -3.76   600.000    1.682E+02    5.1172402E+05   -1.0155635E+04   -9.3686216E+03    5.1172401E+05    9.3686185E+03    5.1251102E+05
   -3.75   600.000    1.653E+02    5.2851078E+05   -1.0448094E+04   -9.6350904E+03    5.2851076E+05    9.6350869E+03    5.2932377E+05
   -3.74   600.000    1.626E+02    5.4433703E+05   -1.0732942E+04   -9.8949136E+03    5.4433701E+05    9.8949099E+03    5.4517504E+05
   -3.73   600.000    1.601E+02    5.5896254E+05   -1.1003968E+04   -1.0143006E+04    5.5896252E+05    1.0143002E+04    5.5982348E+05
   -3.72   600.000    1.577E+02    5.7217429E+05   -1.1254037E+04   -1.0373522E+04    5.7217427E+05    1.0373517E+04    5.7305478E+05
   -3.71   600.000    1.555E+02    5.8380078E+05   -1.1475995E+04   -1.0580698E+04    5.8380076E+05    1.0580693E+04    5.8469606E+05
   -3.70   600.000    1.535E+02    5.9372738E+05   -1.1663670E+04   -1.0759765E+04    5.9372736E+05    1.0759760E+04    5.9463126E+05
   -3.69   600.000    1.515E+02    6.0190827E+05   -1.1812696E+04   -1.0907633E+04    6.0190826E+05    1.0907629E+04    6.0281332E+05
   -3.68   600.000    1.497E+02    6.0836977E+05   -1.1920866E+04   -1.1023107E+04    6.0836975E+05    1.1023103E+04    6.0926751E+05
   -3.67   600.000    1.480E+02    6.1320093E+05   -1.1987925E+04   -1.1106524E+04    6.1320091E+05    1.1106520E+04    6.1408232E+05
   -3.66   600.000    1.465E+02    6.1653136E+05   -1.2014851E+04   -1.1158929E+04    6.1653134E+05    1.1158926E+04    6.1738726E+05
   -3.65   600.000    1.450E+02    6.1850060E+05   -1.2002925E+04   -1.1181099E+04    6.1850058E+05    1.1181096E+04    6.1932241E+05
   -3.64   600.000    1.436E+02    6.1922729E+05   -1.1952951E+04   -1.1172766E+04    6.1922727E+05    1.1172763E+04    6.2000746E+05
   -3.63   600.000    1.423E+02    6.1878686E+05   -1.1864917E+04   -1.1132372E+04    6.1878684E+05    1.1132370E+04    6.1951939E+05
   -3.62   600.000    1.410E+02    6.1720451E+05   -1.1738246E+04   -1.1057464E+04    6.1720449E+05    1.1057462E+04    6.1788528E+05
   -3.61   600.000    1.398E+02    6.1446546E+05   -1.1572582E+04   -1.0945640E+04    6.1446545E+05    1.0945639E+04    6.1509239E+05
   -3.60   600.000    1.387E+02    6.1053947E+05   -1.1368861E+04   -1.0795809E+04    6.1053946E+05    1.0795808E+04    6.1111251E+05
   -3.59   600.000    1.376E+02    6.0541273E+05   -1.1130391E+04   -1.0609412E+04    6.0541272E+05    1.0609412E+04    6.0593370E+05
   -3.58   600.000    1.365E+02    5.9911901E+05   -1.0863598E+04   -1.0391286E+04    5.9911900E+05    1.0391286E+04    5.9959131E+05
   -3.57   600.000    1.355E+02    5.9176260E+05   -1.0578227E+04   -1.0149913E+04    5.9176260E+05    1.0149914E+04    5.9219091E+05
   -3.56   600.000    1.345E+02    5.8352868E+05   -1.0286881E+04   -9.8969799E+03    5.8352867E+05    9.8969813E+03    5.8391857E+05
   -3.55   600.000    1.335E+02    5.7467961E+05   -1.0003979E+04   -9.6463095E+03    5.7467961E+05    9.6463112E+03    5.7503727E+05
   -3.54   600.000    1.326E+02    5.6553893E+05   -9.7443782E+03   -9.4124431E+03    5.6553893E+05    9.4124451E+03    5.6587086E+05
   -3.53   600.000    1.316E+02    5.5646624E+05   -9.5219898E+03   -9.2091987E+03    5.5646624E+05    9.2092008E+03    5.5677903E+05
   -3.52   600.000    1.307E+02    5.4782730E+05   -9.3486926E+03   -9.0485351E+03    5.4782730E+05    9.0485374E+03    5.4812746E+05
   -3.51   600.000    1.297E+02    5.3996343E+05   -9.2337464E+03   -8.9399170E+03    5.3996343E+05    8.9399193E+03    5.4025726E+05
   -3.50   600.000    1.288E+02    5.3316377E+05   -9.1837153E+03   -8.8901977E+03    5.3316377E+05    8.8902000E+03    5.3345729E+05
   -3.49   600.000    1.279E+02    5.2764290E+05   -9.2027657E+03   -8.9038824E+03    5.2764290E+05    8.9038845E+03    5.2794178E+05
   -3.48   600.000    1.269E+02    5.2352574E+05   -9.2931175E+03   -8.9835459E+03    5.2352574E+05    8.9835478E+03    5.2383532E+05
   -3.47   600.000    1.260E+02    5.2084067E+05   -9.4554471E+03   -9.1302033E+03    5.2084067E+05    9.1302050E+03    5.2116592E+05
   -3.46   600.000    1.250E+02    5.1952166E+05   -9.6891363E+03   -9.3435247E+03    5.1952166E+05    9.3435261E+03    5.1986727E+05
   -3.45   600.000    1.241E+02    5.1941982E+05   -9.9923769E+03   -9.6219092E+03    5.1941982E+05    9.6219103E+03    5.1979029E+05
   -3.44   600.000    1.231E+02    5.2032421E+05   -1.0362226E+04   -9.9625180E+03    5.2032421E+05    9.9625187E+03    5.2072392E+05
   -3.43   600.000    1.222E+02    5.2199013E+05   -1.0794712E+04   -1.0361375E+04    5.2199013E+05    1.0361376E+04    5.2242347E+05
   -3.42   600.000    1.212E+02    5.2417200E+05   -1.1285017E+04   -1.0813577E+04    5.2417200E+05    1.0813577E+04    5.2464344E+05
   -3.41   600.000    1.202E+02    5.2665584E+05   -1.1827666E+04   -1.1313527E+04    5.2665584E+05    1.1313527E+04    5.2716998E+05
   -3.40   600.000    1.192E+02    5.2928606E+05   -1.2416553E+04   -1.1855053E+04    5.2928606E+05    1.1855052E+04    5.2984756E+05
   -3.39   600.000    1.182E+02    5.3198188E+05   -1.3044633E+04   -1.2431191E+04    5.3198188E+05    1.2431191E+04    5.3259532E+05
   -3.38   600.000    1.172E+02    5.3474083E+05   -1.3703185E+04   -1.3033558E+04    5.3474082E+05    1.3033557E+04    5.3541045E+05
   -3.37   600.000    1.162E+02    5.3762944E+05   -1.4380723E+04   -1.3651329E+04    5.3762944E+05    1.3651329E+04    5.3835883E+05
   -3.36   600.000    1.152E+02    5.4076404E+05   -1.5061792E+04   -1.4270078E+04    5.4076403E+05    1.4270078E+04    5.4155575E+05
   -3.35   600.000    1.142E+02    5.4428593E+05   -1.5726058E+04   -1.4870837E+04    5.4428592E+05    1.4870836E+04    5.4514114E+05
   -3.34   600.000    1.132E+02    5.4833613E+05   -1.6348127E+04   -1.5429826E+04    5.4833612E+05    1.5429825E+04    5.4925442E+05
   -3.33   600.000    1.122E+02    5.5303404E+05   -1.6898432E+04   -1.5919207E+04    5.5303403E+05    1.5919206E+04    5.5401325E+05
   -3.32   600.000    1.111E+02    5.5846321E+05   -1.7345325E+04   -1.6309015E+04    5.5846320E+05    1.6309014E+04    5.5949951E+05
   -3.31   600.000    1.101E+02    5.6466605E+05   -1.7658199E+04   -1.6570137E+04    5.6466604E+05    1.6570137E+04    5.6575410E+05
   -3.30   600.000    1.090E+02    5.7164725E+05   -1.7811193E+04   -1.6677911E+04    5.7164723E+05    1.6677910E+04    5.7278051E+05
   -3.29   600.000    1.079E+02    5.7938460E+05   -1.7786804E+04   -1.6615693E+04    5.7938458E+05    1.6615692E+04    5.8055570E+05
   -3.28   600.000    1.069E+02    5.8784441E+05   -1.7578706E+04   -1.6377698E+04    5.8784440E+05    1.6377697E+04    5.8904540E+05
   -3.27   600.000    1.058E+02    5.9699786E+05   -1.7193213E+04   -1.5970499E+04    5.9699784E+05    1.5970497E+04    5.9822056E+05
   -3.26   600.000    1.047E+02    6.0683476E+05   -1.6649062E+04   -1.5412851E+04    6.0683474E+05    1.5412849E+04    6.0807095E+05
   -3.25   600.000    1.036E+02    6.1737161E+05   -1.5975566E+04   -1.4733875E+04    6.1737159E+05    1.4733872E+04    6.1861328E+05
   -3.24   600.000    1.026E+02    6.2865205E+05   -1.5209505E+04   -1.3969937E+04    6.2865204E+05    1.3969934E+04    6.2989160E+05
   -3.23   600.000    1.015E+02    6.4073930E+05   -1.4391334E+04   -1.3160850E+04    6.4073928E+05    1.3160846E+04    6.4196976E+05
   -3.22   600.000    1.004E+02    6.5370152E+05   -1.3561377E+04   -1.2346062E+04    6.5370150E+05    1.2346057E+04    6.5491681E+05
   -3.21   600.000    9.930E+01    6.6759268E+05   -1.2756559E+04   -1.1561423E+04    6.6759266E+05    1.1561418E+04    6.6878780E+05
   -3.20   600.000    9.821E+01    6.8243204E+05   -1.2008045E+04   -1.0836894E+04    6.8243202E+05    1.0836889E+04    6.8360317E+05
   -3.19   600.000    9.712E+01    6.9818591E+05   -1.1339860E+04   -1.0195269E+04    6.9818589E+05    1.0195263E+04    6.9933048E+05
   -3.18   600.000    9.602E+01    7.1475523E+05   -1.0768396E+04   -9.6517930E+03    7.1475522E+05    9.6517866E+03    7.1587182E+05
   -3.17   600.000    9.492E+01    7.3197116E+05   -1.0302558E+04   -9.2144074E+03    7.3197115E+05    9.2144004E+03    7.3305930E+05
   -3.16   600.000    9.381E+01    7.4959967E+05   -9.9443303E+03   -8.8843891E+03    7.4959966E+05    8.8843816E+03    7.5065960E+05
   -3.15   600.000    9.270E+01    7.6735450E+05   -9.6896372E+03   -8.6572461E+03    7.6735449E+05    8.6572381E+03    7.6838688E+05
   -3.14   600.000    9.158E+01    7.8491663E+05   -9.5294829E+03   -8.5238519E+03    7.8491662E+05    8.5238436E+03    7.8592225E+05
   -3.13   600.000    9.045E+01    8.0195757E+05   -9.4514242E+03   -8.4718789E+03    8.0195756E+05    8.4718703E+03    8.0293710E+05
   -3.12   600.000    8.930E+01    8.1816336E+05   -9.4414012E+03   -8.4875579E+03    8.1816335E+05    8.4875491E+03    8.1911719E+05
   -3.11   600.000    8.815E+01    8.3325635E+05   -9.4858332E+03   -8.5576849E+03    8.3325634E+05    8.5576760E+03    8.3418449E+05
   -3.10   600.000    8.697E+01    8.4701179E+05   -9.5737329E+03   -8.6716349E+03    8.4701179E+05    8.6716260E+03    8.4791388E+05
   -3.09   600.000    8.577E+01    8.5926729E+05   -9.6984629E+03   -8.8230212E+03    8.5926728E+05    8.8230123E+03    8.6014272E+05
   -3.08   600.000    8.455E+01    8.6992433E+05   -9.8587293E+03   -9.0106084E+03    8.6992433E+05    9.0105996E+03    8.7077245E+05
   -3.07   600.000    8.330E+01    8.7894262E+05   -1.0058510E+04   -9.2381916E+03    8.7894262E+05    9.2381830E+03    8.7976294E+05
   -3.06   600.000    8.202E+01    8.8632910E+05   -1.0305836E+04   -9.5133697E+03    8.8632910E+05    9.5133612E+03    8.8712157E+05
   -3.05   600.000    8.070E+01    8.9212441E+05   -1.0610629E+04   -9.8454107E+03    8.9212441E+05    9.8454023E+03    8.9288963E+05
   -3.04   600.000    7.934E+01    8.9638936E+05   -1.0982014E+04   -1.0242640E+04    8.9638936E+05    1.0242632E+04    8.9712873E+05
   -3.03   600.000    7.793E+01    8.9919351E+05   -1.1425691E+04   -1.0709903E+04    8.9919351E+05    1.0709895E+04    8.9990930E+05
   -3.02   600.000    7.647E+01    9.0060704E+05   -1.1941879E+04   -1.1246610E+04    9.0060704E+05    1.1246603E+04    9.0130231E+05
   -3.01   600.000    7.496E+01    9.0069629E+05   -1.2524216E+04   -1.1845736E+04    9.0069628E+05    1.1845729E+04    9.0137476E+05
   -3.00   600.000    7.339E+01    8.9952301E+05   -1.3159764E+04   -1.2493904E+04    8.9952300E+05    1.2493897E+04    9.0018886E+05
   -2.99   600.000    7.177E+01    8.9714661E+05   -1.3830062E+04   -1.3172495E+04    8.9714661E+05    1.3172488E+04    8.9780418E+05
   -2.98   600.000    7.009E+01    8.9362852E+05   -1.4513022E+04   -1.3859569E+04    8.9362852E+05    1.3859563E+04    8.9428197E+05
   -2.97   600.000    6.834E+01    8.8903715E+05   -1.5185382E+04   -1.4532318E+04    8.8903715E+05    1.4532312E+04    8.8969021E+05
   -2.96   600.000    6.654E+01    8.8345209E+05   -1.5825375E+04   -1.5169698E+04    8.8345208E+05    1.5169693E+04    8.8410776E+05
   -2.95   600.000    6.468E+01    8.7696644E+05   -1.6415250E+04   -1.5754884E+04    8.7696643E+05    1.5754879E+04    8.7762679E+05
   -2.94   600.000    6.276E+01    8.6968697E+05   -1.6943230E+04   -1.6277145E+04    8.6968696E+05    1.6277140E+04    8.7035305E+05
   -2.93   600.000    6.080E+01    8.6173251E+05   -1.7404548E+04   -1.6732764E+04    8.6173250E+05    1.6732759E+04    8.6240429E+05
   -2.92   600.000    5.879E+01    8.5323119E+05   -1.7801294E+04   -1.7124789E+04    8.5323118E+05    1.7124785E+04    8.5390769E+05
   -2.91   600.000    5.674E+01    8.4431704E+05   -1.8141091E+04   -1.7461608E+04    8.4431703E+05    1.7461604E+04    8.4499651E+05
   -2.90   600.000    5.467E+01    8.3512572E+05   -1.8434887E+04   -1.7754678E+04    8.3512571E+05    1.7754673E+04    8.3580592E+05
   -2.89   600.000    5.258E+01    8.2578893E+05   -1.8694394E+04   -1.8015939E+04    8.2578892E+05    1.8015935E+04    8.2646738E+05
   -2.88   600.000    5.048E+01    8.1642722E+05   -1.8929755E+04   -1.8255492E+04    8.1642720E+05    1.8255488E+04    8.1710147E+05
   -2.87   600.000    4.838E+01    8.0714162E+05   -1.9147848E+04   -1.8479956E+04    8.0714160E+05    1.8479951E+04    8.0780950E+05
   -2.86   600.000    4.630E+01    7.9800560E+05   -1.9351403E+04   -1.8691645E+04    7.9800558E+05    1.8691640E+04    7.9866534E+05
   -2.85   600.000    4.425E+01    7.8905914E+05   -1.9538786E+04   -1.8888441E+04    7.8905913E+05    1.8888436E+04    7.8970947E+05
   -2.84   600.000    4.224E+01    7.8030690E+05   -1.9704231E+04   -1.9064080E+04    7.8030688E+05    1.9064074E+04    7.8094703E+05
   -2.83   600.000    4.027E+01    7.7172119E+05   -1.9838257E+04   -1.9208622E+04    7.7172118E+05    1.9208617E+04    7.7235081E+05
   -2.82   600.000    3.837E+01    7.6324912E+05   -1.9928199E+04   -1.9308999E+04    7.6324911E+05    1.9308993E+04    7.6386831E+05
   -2.81   600.000    3.654E+01    7.5482167E+05   -1.9958864E+04   -1.9349671E+04    7.5482166E+05    1.9349665E+04    7.5543085E+05
   -2.80   600.000    3.478E+01    7.4636191E+05   -1.9913464E+04   -1.9313542E+04    7.4636190E+05    1.9313537E+04    7.4696182E+05
   -2.79   600.000    3.310E+01    7.3779004E+05   -1.9774902E+04   -1.9183239E+04    7.3779003E+05    1.9183234E+04    7.3838169E+05
   -2.78   600.000    3.150E+01    7.2902429E+05   -1.9527463E+04   -1.8942787E+04    7.2902427E+05    1.8942782E+04    7.2960895E+05
   -2.77   600.000    2.999E+01    7.1997842E+05   -1.9158799E+04   -1.8579595E+04    7.1997841E+05    1.8579590E+04    7.2055761E+05
   -2.76   600.000    2.856E+01    7.1055793E+05   -1.8662006E+04   -1.8086535E+04    7.1055792E+05    1.8086531E+04    7.1113339E+05
   -2.75   600.000    2.722E+01    7.0065701E+05   -1.8037465E+04   -1.7463787E+04    7.0065700E+05    1.7463783E+04    7.0123068E+05
   -2.74   600.000    2.596E+01    6.9015794E+05   -1.7294094E+04   -1.6720081E+04    6.9015793E+05    1.6720077E+04    6.9073194E+05
   -2.73   600.000    2.477E+01    6.7893355E+05   -1.6449657E+04   -1.5873000E+04    6.7893354E+05    1.5872996E+04    6.7951020E+05
   -2.72   600.000    2.367E+01    6.6685270E+05   -1.5529950E+04   -1.4948150E+04    6.6685269E+05    1.4948148E+04    6.6743449E+05
   -2.71   600.000    2.263E+01    6.5378842E+05   -1.4566853E+04   -1.3977209E+04    6.5378841E+05    1.3977207E+04    6.5437806E+05
   -2.70   600.000    2.166E+01    6.3962859E+05   -1.3595485E+04   -1.2995085E+04    6.3962858E+05    1.2995083E+04    6.4022898E+05
   -2.69   600.000    2.075E+01    6.2428839E+05   -1.2650850E+04   -1.2036596E+04    6.2428838E+05    1.2036595E+04    6.2490264E+05
   -2.68   600.000    1.990E+01    6.0772401E+05   -1.1764447E+04   -1.1133136E+04    6.0772400E+05    1.1133134E+04    6.0835531E+05
   -2.67   600.000    1.911E+01    5.8994541E+05   -1.0961339E+04   -1.0309817E+04    5.8994540E+05    1.0309817E+04    5.9059692E+05
   -2.66   600.000    1.836E+01    5.7102618E+05   -1.0258112E+04   -9.5835276E+03    5.7102617E+05    9.5835271E+03    5.7170075E+05
   -2.65   600.000    1.766E+01    5.5110799E+05   -9.6620554E+03   -8.9621854E+03    5.5110799E+05    8.9621852E+03    5.5180786E+05
   -2.64   600.000    1.699E+01    5.3039842E+05   -9.1717127E+03   -8.4453349E+03    5.3039841E+05    8.4453348E+03    5.3112479E+05
   -2.63   600.000    1.637E+01    5.0916190E+05   -8.7786673E+03   -8.0259253E+03    5.0916189E+05    8.0259255E+03    5.0991463E+05
   -2.62   600.000    1.577E+01    4.8770518E+05   -8.4702114E+03   -7.6928962E+03    4.8770518E+05    7.6928964E+03    4.8848249E+05
   -2.61   600.000    1.521E+01    4.6635897E+05   -8.2323306E+03   -7.4340052E+03    4.6635896E+05    7.4340056E+03    4.6715729E+05
   -2.60   600.000    1.467E+01    4.4545770E+05   -8.0524057E+03   -7.2383175E+03    4.4545769E+05    7.2383180E+03    4.4627178E+05
   -2.59   600.000    1.416E+01    4.2531937E+05   -7.9211378E+03   -7.0978958E+03    4.2531937E+05    7.0978964E+03    4.2614261E+05
   -2.58   600.000    1.366E+01    4.0622706E+05   -7.8334172E+03   -7.0084563E+03    4.0622706E+05    7.0084570E+03    4.0705202E+05
   -2.57   600.000    1.319E+01    3.8841396E+05   -7.7880954E+03   -6.9689949E+03    3.8841396E+05    6.9689957E+03    3.8923306E+05
   -2.56   600.000    1.273E+01    3.7205352E+05   -7.7868235E+03   -6.9805758E+03    3.7205352E+05    6.9805767E+03    3.7285977E+05
   -2.55   600.000    1.228E+01    3.5725581E+05   -7.8322557E+03   -7.0445884E+03    3.5725581E+05    7.0445895E+03    3.5804348E+05
   -2.54   600.000    1.186E+01    3.4407019E+05   -7.9259826E+03   -7.1608247E+03    3.4407019E+05    7.1608259E+03    3.4483535E+05
   -2.53   600.000    1.144E+01    3.3249314E+05   -8.0665659E+03   -7.3257184E+03    3.3249314E+05    7.3257198E+03    3.3323399E+05
   -2.52   600.000    1.104E+01    3.2247896E+05   -8.2479963E+03   -7.5310301E+03    3.2247896E+05    7.5310317E+03    3.2319593E+05
   -2.51   600.000    1.066E+01    3.1395046E+05   -8.4587907E+03   -7.7631633E+03    3.1395046E+05    7.7631651E+03    3.1464608E+05
   -2.50   600.000    1.028E+01    3.0680692E+05   -8.6818203E+03   -8.0031754E+03    3.0680691E+05    8.0031775E+03    3.0748556E+05
   -2.49   600.000    9.918E+00    3.0092754E+05   -8.8948360E+03   -8.2274378E+03    3.0092753E+05    8.2274401E+03    3.0159493E+05
   -2.48   600.000    9.568E+00    2.9616999E+05   -9.0715955E+03   -8.4088438E+03    2.9616999E+05    8.4088463E+03    2.9683274E+05
   -2.47   600.000    9.229E+00    2.9236521E+05   -9.1834952E+03   -8.5184704E+03    2.9236520E+05    8.5184731E+03    2.9303022E+05
   -2.46   600.000    8.901E+00    2.8931084E+05   -9.2016547E+03   -8.5276500E+03    2.8931083E+05    8.5276529E+03    2.8998484E+05
   -2.45   600.000    8.585E+00    2.8676660E+05   -9.0994224E+03   -8.4104277E+03    2.8676659E+05    8.4104307E+03    2.8745558E+05
   -2.44   600.000    8.279E+00    2.8445442E+05   -8.8552067E+03   -8.1463192E+03    2.8445441E+05    8.1463222E+03    2.8516329E+05
   -2.43   600.000    7.983E+00    2.8206562E+05   -8.4553683E+03   -7.7231114E+03    2.8206561E+05    7.7231143E+03    2.8279787E+05
   -2.42   600.000    7.697E+00    2.7927550E+05   -7.8967001E+03   -7.1392391E+03    2.7927548E+05    7.1392420E+03    2.8003294E+05
   -2.41   600.000    7.421E+00    2.7576378E+05   -7.1879034E+03   -6.4051545E+03    2.7576376E+05    6.4051572E+03    2.7654651E+05
   -2.40   600.000    7.155E+00    2.7123803E+05   -6.3495669E+03   -5.5431971E+03    2.7123802E+05    5.5431996E+03    2.7204439E+05
   -2.39   600.000    6.899E+00    2.6545609E+05   -5.4124798E+03   -4.5858085E+03    2.6545607E+05    4.5858107E+03    2.6628274E+05
   -2.38   600.000    6.654E+00    2.5824426E+05   -4.4145559E+03   -3.5723723E+03    2.5824424E+05    3.5723742E+03    2.5908643E+05
   -2.37   600.000    6.418E+00    2.4950927E+05   -3.3969981E+03   -2.5453189E+03    2.4950925E+05    2.5453206E+03    2.5036093E+05
   -2.36   600.000    6.194E+00    2.3924329E+05   -2.4004386E+03   -1.5462321E+03    2.3924328E+05    1.5462334E+03    2.4009749E+05
   -2.35   600.000    5.980E+00    2.2752278E+05   -1.4616403E+03   -6.1253658E+02    2.2752277E+05    6.1253767E+02    2.2837187E+05
   -2.34   600.000    5.778E+00    2.1450188E+05   -6.1106173E+02    2.2494096E+02    2.1450186E+05   -2.2494011E+02    2.1533787E+05
   -2.33   600.000    5.589E+00    2.0040145E+05    1.2866264E+02    9.4349774E+02    2.0040143E+05   -9.4349710E+02    2.0121627E+05
   -2.32   600.000    5.411E+00    1.8549428E+05    7.4339953E+02    1.5292443E+03    1.8549426E+05   -1.5292439E+03    1.8628011E+05
   -2.31   600.000    5.246E+00    1.7008720E+05    1.2274518E+03    1.9770518E+03    1.7008718E+05   -1.9770515E+03    1.7083678E+05
   -2.30   600.000    5.094E+00    1.5450119E+05    1.5828492E+03    2.2898405E+03    1.5450118E+05   -2.2898403E+03    1.5520817E+05
   -2.29   600.000    4.955E+00    1.3905117E+05    1.8181152E+03    2.4773154E+03    1.3905116E+05   -2.4773153E+03    1.3971036E+05
   -2.28   600.000    4.829E+00    1.2402735E+05    1.9466730E+03    2.5543049E+03    1.2402734E+05   -2.5543049E+03    1.2463498E+05
   -2.27   600.000    4.715E+00    1.0968000E+05    1.9850880E+03    2.5389047E+03    1.0968000E+05   -2.5389047E+03    1.1023381E+05
   -2.26   600.000    4.614E+00    9.6209023E+04    1.9513488E+03    2.4506426E+03    9.6209015E+04   -2.4506426E+03    9.6708309E+04
   -2.25   600.000    4.524E+00    8.3758859E+04    1.8633515E+03    2.3088512E+03    8.3758852E+04   -2.3088513E+03    8.4204352E+04
   -2.24   600.000    4.444E+00    7.2418586E+04    1.7377069E+03    2.1313826E+03    7.2418580E+04   -2.1313827E+03    7.2812256E+04
   -2.23   600.000    4.375E+00    6.2226277E+04    1.5889221E+03    1.9337306E+03    6.2226272E+04   -1.9337307E+03    6.2571081E+04
   -2.22   600.000    4.315E+00    5.3176412E+04    1.4289585E+03    1.7285637E+03    5.3176408E+04   -1.7285637E+03    5.3476013E+04
   -2.21   600.000    4.263E+00    4.5228945E+04    1.2671179E+03    1.5256182E+03    4.5228941E+04   -1.5256182E+03    4.5487442E+04
   -2.20   600.000    4.218E+00    3.8318771E+04    1.1101804E+03    1.3318673E+03    3.8318768E+04   -1.3318674E+03    3.8540455E+04
   -2.19   600.000    4.180E+00    3.2364621E+04    9.6270927E+02    1.1518694E+03    3.2364618E+04   -1.1518694E+03    3.2553778E+04
   -2.18   600.000    4.146E+00    2.7276748E+04    8.2743865E+02    9.8820478E+02    2.7276746E+04   -9.8820483E+02    2.7437512E+04
   -2.17   600.000    4.117E+00    2.2963118E+04    7.0567915E+02    8.4192917E+02    2.2963117E+04   -8.4192922E+02    2.3099367E+04
   -2.16   600.000    4.092E+00    1.9334043E+04    5.9769604E+02    7.1299269E+02    1.9334042E+04   -7.1299273E+02    1.9449339E+04
   -2.15   600.000    4.070E+00    1.6305410E+04    5.0303373E+02    6.0059801E+02    1.6305409E+04   -6.0059805E+02    1.6402973E+04
   -2.14   600.000    4.050E+00    1.3800721E+04    4.2077680E+02    5.0348660E+02    1.3800720E+04   -5.0348663E+02    1.3883430E+04
   -2.13   600.000    4.032E+00    1.1752216E+04    3.4974841E+02    4.2015493E+02    1.1752215E+04   -4.2015496E+02    1.1822622E+04
   -2.12   600.000    4.015E+00    1.0101316E+04    2.8865301E+02    3.4900893E+02    1.0101315E+04   -3.4900895E+02    1.0161671E+04
   -2.11   600.000    3.998E+00    8.7986153E+03    2.3617333E+02    2.8846778E+02    8.7986150E+03   -2.8846780E+02    8.8509095E+03
   -2.10   600.000    3.982E+00    7.8035894E+03    1.9103162E+02    2.3702869E+02    7.8035893E+03   -2.3702871E+02    7.8495863E+03
   -2.09   600.000    3.964E+00    7.0841458E+03    1.5202461E+02    1.9330274E+02    7.0841458E+03   -1.9330275E+02    7.1254240E+03
   -2.08   600.000    3.946E+00    6.6161163E+03    1.1803969E+02    1.5603060E+02    6.6161165E+03   -1.5603062E+02    6.6541074E+03
   -2.07   600.000    3.925E+00    6.3827388E+03    8.8058680E+01    1.2408477E+02    6.3827392E+03   -1.2408479E+02    6.4187653E+03
   -2.06   600.000    3.903E+00    6.3741605E+03    6.1153795E+01    9.6463337E+01    6.3741610E+03   -9.6463348E+01    6.4094705E+03
   -2.05   600.000    3.876E+00    6.5869634E+03    3.6479429E+01    7.2279131E+01    6.5869641E+03   -7.2279141E+01    6.6227638E+03
   -2.04   600.000    3.846E+00    7.0236982E+03    1.3262419E+01    5.0746865E+01    7.0236991E+03   -5.0746874E+01    7.0611835E+03
   -2.03   600.000    3.811E+00    7.6923897E+03   -9.2070782E+00    3.1170172E+01    7.6923908E+03   -3.1170179E+01    7.7327680E+03
   -2.02   600.000    3.771E+00    8.6059692E+03   -3.1582396E+01    1.2929969E+01    8.6059705E+03   -1.2929974E+01    8.6504829E+03
   -2.01   600.000    3.723E+00    9.7815761E+03   -5.4463360E+01   -4.5248010E+00    9.7815777E+03    4.5248000E+00    9.8315163E+03
   -2.00   600.000    3.668E+00    1.1239673E+04   -7.8394177E+01   -2.1683240E+01    1.1239675E+04    2.1683244E+01    1.1296386E+04
   -1.99   600.000    3.603E+00    1.3002934E+04   -1.0385518E+02   -3.8974778E+01    1.3002937E+04    3.8974790E+01    1.3067817E+04
   -1.98   600.000    3.529E+00    1.5094889E+04   -1.3124780E+02   -5.6767379E+01    1.5094892E+04    5.6767401E+01    1.5169372E+04
   -1.97   600.000    3.444E+00    1.7538371E+04   -1.6087293E+02   -7.5361782E+01    1.7538374E+04    7.5361818E+01    1.7623886E+04
   -1.96   600.000    3.347E+00    2.0353890E+04   -1.9290407E+02   -9.4982555E+01    2.0353893E+04    9.4982612E+01    2.0451815E+04
   -1.95   600.000    3.238E+00    2.3558123E+04   -2.2735805E+02   -1.1576749E+02    2.3558127E+04    1.1576758E+02    2.3669717E+04
   -1.94   600.000    3.116E+00    2.7162831E+04   -2.6406809E+02   -1.3775771E+02    2.7162836E+04    1.3775783E+02    2.7289146E+04
   -1.93   600.000    2.981E+00    3.1174520E+04   -3.0266515E+02   -1.6089139E+02    3.1174525E+04    1.6089155E+02    3.1316298E+04
   -1.92   600.000    2.834E+00    3.5595150E+04   -3.4257415E+02   -1.8500408E+02    3.5595156E+04    1.8500430E+02    3.5752726E+04
   -1.91   600.000    2.676E+00    4.0424105E+04   -3.8303087E+02   -2.0983775E+02    4.0424112E+04    2.0983803E+02    4.0597305E+04
   -1.90   600.000    2.507E+00    4.5661387E+04   -4.2312262E+02   -2.3505922E+02    4.5661394E+04    2.3505957E+02    4.5849457E+04
   -1.89   600.000    2.329E+00    5.1311791E+04   -4.6185235E+02   -2.6028707E+02    5.1311798E+04    2.6028750E+02    5.1513363E+04
   -1.88   600.000    2.144E+00    5.7389574E+04   -4.9822150E+02   -2.8512453E+02    5.7389582E+04    2.8512504E+02    5.7602679E+04
   -1.87   600.000    1.954E+00    6.3922975E+04   -5.3132348E+02   -3.0919539E+02    6.3922983E+04    3.0919597E+02    6.4145111E+04
   -1.86   600.000    1.761E+00    7.0957915E+04   -5.6043669E+02   -3.3217980E+02    7.0957923E+04    3.3218045E+02    7.1186180E+04
   -1.85   600.000    1.568E+00    7.8560297E+04   -5.8510428E+02   -3.5384649E+02    7.8560306E+04    3.5384719E+02    7.8791564E+04
   -1.84   600.000    1.375E+00    8.6816468E+04   -6.0518758E+02   -3.7407711E+02    8.6816478E+04    3.7407782E+02    8.7047588E+04
   -1.83   600.000    1.184E+00    9.5831616E+04   -6.2088152E+02   -3.9287737E+02    9.5831626E+04    3.9287807E+02    9.6059630E+04
   -1.82   600.000    9.982E-01    1.0572607E+05   -6.3268557E+02   -4.1037015E+02    1.0572608E+05    4.1037081E+02    1.0594839E+05
   -1.81   600.000    8.171E-01    1.1662966E+05   -6.4133189E+02   -4.2676811E+02    1.1662967E+05    4.2676868E+02    1.1684424E+05
   -1.80   600.000    6.418E-01    1.2867464E+05   -6.4768183E+02   -4.4232823E+02    1.2867465E+05    4.4232868E+02    1.2888001E+05
   -1.79   600.000    4.730E-01    1.4198764E+05   -6.5260924E+02   -4.5729514E+02    1.4198766E+05    4.5729543E+02    1.4218297E+05
   -1.78   600.000    3.106E-01    1.5668171E+05   -6.5689049E+02   -4.7184237E+02    1.5668172E+05    4.7184248E+02    1.5686677E+05
   -1.77   600.000    1.547E-01    1.7284928E+05   -6.6111633E+02   -4.8601913E+02    1.7284930E+05    4.8601905E+02    1.7302439E+05
   -1.76   600.000    4.809E-03    1.9055727E+05   -6.6563109E+02   -4.9970578E+02    1.9055729E+05    4.9970549E+02    1.9072321E+05
   -1.75   600.000   -1.395E-01    2.0984501E+05   -6.7049476E+02   -5.1257615E+02    2.0984502E+05    5.1257567E+02    2.1000294E+05
   -1.74   600.000   -2.790E-01    2.3072566E+05   -6.7545789E+02   -5.2406249E+02    2.3072567E+05    5.2406185E+02    2.3087707E+05
   -1.73   600.000   -4.142E-01    2.5319111E+05   -6.7993900E+02   -5.3331935E+02    2.5319113E+05    5.3331861E+02    2.5333775E+05
   -1.72   600.000   -5.462E-01    2.7721950E+05   -6.8300060E+02   -5.3918790E+02    2.7721952E+05    5.3918712E+02    2.7736333E+05
   -1.71   600.000   -6.755E-01    3.0278387E+05   -6.8332924E+02   -5.4016856E+02    3.0278389E+05    5.4016784E+02    3.0292705E+05
   -1.70   600.000   -8.030E-01    3.2985985E+05   -6.7923409E+02   -5.3441636E+02    3.2985986E+05    5.3441583E+02    3.3000468E+05
   -1.69   600.000   -9.294E-01    3.5842997E+05   -6.6868461E+02   -5.1977683E+02    3.5842998E+05    5.1977663E+02    3.5857889E+05
   -1.68   600.000   -1.055E+00    3.8848287E+05   -6.4940861E+02   -4.9388003E+02    3.8848288E+05    4.9388033E+02    3.8863841E+05
   -1.67   600.000   -1.181E+00    4.2000674E+05   -6.1906650E+02   -4.5430500E+02    4.2000675E+05    4.5430598E+02    4.2017152E+05
   -1.66   600.000   -1.308E+00    4.5297812E+05   -5.7550707E+02   -3.9881737E+02    4.5297813E+05    3.9881924E+02    4.5315482E+05
   -1.65   600.000   -1.435E+00    4.8734855E+05   -5.1709448E+02   -3.2566919E+02    4.8734857E+05    3.2567216E+02    4.8753999E+05
   -1.64   600.000   -1.565E+00    5.2303286E+05   -4.4307816E+02   -2.3393501E+02    5.2303288E+05    2.3393928E+02    5.2324202E+05
   -1.63   600.000   -1.695E+00    5.5990267E+05   -3.5396257E+02   -1.2384594E+02    5.5990269E+05    1.2385171E+02    5.6013280E+05
   -1.62   600.000   -1.828E+00    5.9778778E+05   -2.5182634E+02    2.9210654E+00    5.9778780E+05   -2.9136240E+00    5.9804254E+05
   -1.61   600.000   -1.963E+00    6.3648618E+05   -1.4054387E+02    1.4303737E+02    6.3648620E+05   -1.4302813E+02    6.3676978E+05
   -1.60   600.000   -2.101E+00    6.7578098E+05   -2.5871901E+01    2.9143036E+02    6.7578101E+05   -2.9141925E+02    6.7609831E+05
   -1.59   600.000   -2.241E+00    7.1546045E+05    8.4630148E+01    4.4133118E+02    7.1546048E+05   -4.4131821E+02    7.1581718E+05
   -1.58   600.000   -2.383E+00    7.5533630E+05    1.8187982E+02    5.8449574E+02    7.5533634E+05   -5.8448098E+02    7.5573895E+05
   -1.57   600.000   -2.529E+00    7.9525523E+05    2.5578925E+02    7.1163996E+02    7.9525526E+05   -7.1162356E+02    7.9571111E+05
   -1.56   600.000   -2.676E+00    8.3510021E+05    2.9604464E+02    8.1311902E+02    8.3510025E+05   -8.1310120E+02    8.3561732E+05
   -1.55   600.000   -2.827E+00    8.7478036E+05    2.9311767E+02    8.7982921E+02    8.7478041E+05   -8.7981026E+02    8.7536712E+05
   -1.54   600.000   -2.980E+00    9.1421073E+05    2.3938801E+02    9.0422186E+02    9.1421078E+05   -9.0420212E+02    9.1487561E+05
   -1.53   600.000   -3.137E+00    9.5328624E+05    1.3015904E+02    8.8122540E+02    9.5328629E+05   -8.8120525E+02    9.5403735E+05
   -1.52   600.000   -3.296E+00    9.9185597E+05   -3.5695176E+01    8.0883040E+02    9.9185602E+05   -8.0881024E+02    9.9270055E+05
   -1.51   600.000   -3.458E+00    1.0297047E+06   -2.5565783E+02    6.8815003E+02    1.0297047E+06   -6.8813026E+02    1.0306485E+06
   -1.50   600.000   -3.623E+00    1.0665471E+06   -5.2411581E+02    5.2292810E+02    1.0665471E+06   -5.2290915E+02    1.0675942E+06
   -1.49   600.000   -3.792E+00    1.1020382E+06   -8.3335634E+02    3.1866867E+02    1.1020382E+06   -3.1865094E+02    1.1031903E+06
   -1.48   600.000   -3.964E+00    1.1357989E+06   -1.1746859E+03    8.1703326E+01    1.1357989E+06   -8.1687186E+01    1.1370553E+06
   -1.47   600.000   -4.138E+00    1.1674532E+06   -1.5393263E+03   -1.8149182E+02    1.1674533E+06    1.8150603E+02    1.1688111E+06
   -1.46   600.000   -4.316E+00    1.1966712E+06   -1.9188918E+03   -4.6458082E+02    1.1966713E+06    4.6459281E+02    1.1981256E+06
   -1.45   600.000   -4.497E+00    1.2232096E+06   -2.3054835E+03   -7.6134355E+02    1.2232097E+06    7.6135311E+02    1.2247538E+06
   -1.44   600.000   -4.681E+00    1.2469444E+06   -2.6916375E+03   -1.0656065E+03    1.2469444E+06    1.0656134E+03    1.2485704E+06
   -1.43   600.000   -4.867E+00    1.2678877E+06   -3.0704007E+03   -1.3713990E+03    1.2678878E+06    1.3714033E+03    1.2695868E+06
   -1.42   600.000   -5.056E+00    1.2861878E+06   -3.4356828E+03   -1.6734377E+03    1.2861879E+06    1.6734395E+03    1.2879501E+06
   -1.41   600.000   -5.247E+00    1.3021095E+06   -3.7828176E+03   -1.9677948E+03    1.3021095E+06    1.9677942E+03    1.3039246E+06
   -1.40   600.000   -5.441E+00    1.3160010E+06   -4.1090745E+03   -2.2524233E+03    1.3160011E+06    2.2524205E+03    1.3178577E+06
   -1.39   600.000   -5.637E+00    1.3282533E+06   -4.4138084E+03   -2.5271849E+03    1.3282533E+06    2.5271803E+03    1.3301399E+06
   -1.38   600.000   -5.836E+00    1.3392607E+06   -4.6980134E+03   -2.7931652E+03    1.3392608E+06    2.7931591E+03    1.3411656E+06
   -1.37   600.000   -6.038E+00    1.3493932E+06   -4.9632369E+03   -3.0513048E+03    1.3493932E+06    3.0512977E+03    1.3513052E+06
   -1.36   600.000   -6.242E+00    1.3589834E+06   -5.2100358E+03   -3.3006310E+03    1.3589834E+06    3.3006234E+03    1.3608928E+06
   -1.35   600.000   -6.449E+00    1.3683321E+06   -5.4363479E+03   -3.5365624E+03    1.3683321E+06    3.5365548E+03    1.3702319E+06
   -1.34   600.000   -6.658E+00    1.3777269E+06   -5.6362487E+03   -3.7498092E+03    1.3777269E+06    3.7498019E+03    1.3796134E+06
   -1.33   600.000   -6.871E+00    1.3874661E+06   -5.7995048E+03   -3.9262738E+03    1.3874661E+06    3.9262673E+03    1.3893394E+06
   -1.32   600.000   -7.087E+00    1.3978784E+06   -5.9121129E+03   -4.0480807E+03    1.3978784E+06    4.0480753E+03    1.3997425E+06
   -1.31   600.000   -7.306E+00    1.4093313E+06   -5.9576985E+03   -4.0955119E+03    1.4093313E+06    4.0955080E+03    1.4111935E+06
   -1.30   600.000   -7.529E+00    1.4222242E+06   -5.9193667E+03   -4.0493488E+03    1.4222243E+06    4.0493467E+03    1.4240943E+06
   -1.29   600.000   -7.754E+00    1.4369692E+06   -5.7814953E+03   -3.8930282E+03    1.4369693E+06    3.8930283E+03    1.4388577E+06
   -1.28   600.000   -7.982E+00    1.4539646E+06   -5.5310815E+03   -3.6141725E+03    1.4539647E+06    3.6141749E+03    1.4558816E+06
   -1.27   600.000   -8.214E+00    1.4735701E+06   -5.1585293E+03   -3.2053452E+03    1.4735701E+06    3.2053502E+03    1.4755233E+06
   -1.26   600.000   -8.447E+00    1.4960885E+06   -4.6580402E+03   -2.6641855E+03    1.4960886E+06    2.6641934E+03    1.4980824E+06
   -1.25   600.000   -8.684E+00    1.5217585E+06   -4.0279088E+03   -1.9932348E+03    1.5217586E+06    1.9932458E+03    1.5237932E+06
   -1.24   600.000   -8.922E+00    1.5507548E+06   -3.2709773E+03   -1.1997575E+03    1.5507548E+06    1.1997718E+03    1.5528260E+06
   -1.23   600.000   -9.163E+00    1.5831937E+06   -2.3953170E+03   -2.9571350E+02    1.5831938E+06    2.9573102E+02    1.5852934E+06
   -1.22   600.000   -9.406E+00    1.6191397E+06   -1.4149956E+03    7.0213657E+02    1.6191397E+06   -7.0211578E+02    1.6212569E+06
   -1.21   600.000   -9.651E+00    1.6586076E+06   -3.5065185E+02    1.7721393E+03    1.6586076E+06   -1.7721154E+03    1.6607304E+06
   -1.20   600.000   -9.898E+00    1.7015601E+06    7.7041512E+02    2.8878569E+03    1.7015601E+06   -2.8878301E+03    1.7036776E+06
   -1.19   600.000   -1.015E+01    1.7478965E+06    1.9148307E+03    4.0185208E+03    1.7478965E+06   -4.0184915E+03    1.7500002E+06
   -1.18   600.000   -1.040E+01    1.7974315E+06    3.0444382E+03    5.1298940E+03    1.7974316E+06   -5.1298627E+03    1.7995170E+06
   -1.17   600.000   -1.065E+01    1.8498638E+06    4.1181960E+03    6.1855289E+03    1.8498639E+06   -6.1854962E+03    1.8519312E+06
   -1.16   600.000   -1.091E+01    1.9047366E+06    5.0944929E+03    7.1483553E+03    1.9047366E+06   -7.1483217E+03    1.9067905E+06
   -1.15   600.000   -1.117E+01    1.9613996E+06    5.9336719E+03    7.9825066E+03    1.9613997E+06   -7.9824726E+03    1.9634485E+06
   -1.14   600.000   -1.143E+01    2.0189866E+06    6.6005391E+03    8.6552527E+03    2.0189867E+06   -8.6552189E+03    2.0210414E+06
   -1.13   600.000   -1.170E+01    2.0764218E+06    7.0665983E+03    9.1388417E+03    2.0764218E+06   -9.1388086E+03    2.0784941E+06
   -1.12   600.000   -1.197E+01    2.1324672E+06    7.3117042E+03    9.4119863E+03    2.1324672E+06   -9.4119540E+03    2.1345675E+06
   -1.11   600.000   -1.224E+01    2.1858115E+06    7.3248451E+03    9.4607279E+03    2.1858115E+06   -9.4606969E+03    2.1879474E+06
   -1.10   600.000   -1.252E+01    2.2351908E+06    7.1039131E+03    9.2785506E+03    2.2351908E+06   -9.2785210E+03    2.2373654E+06
   -1.09   600.000   -1.280E+01    2.2795225E+06    6.6546014E+03    8.8658679E+03    2.2795225E+06   -8.8658398E+03    2.2817337E+06
   -1.08   600.000   -1.309E+01    2.3180303E+06    5.9888760E+03    8.2292751E+03    2.3180303E+06   -8.2292486E+03    2.3202707E+06
   -1.07   600.000   -1.338E+01    2.3503394E+06    5.1236338E+03    7.3810746E+03    2.3503394E+06   -7.3810499E+03    2.3525968E+06
   -1.06   600.000   -1.367E+01    2.3765272E+06    4.0800545E+03    6.3394326E+03    2.3765272E+06   -6.3394098E+03    2.3787866E+06
   -1.05   600.000   -1.396E+01    2.3971239E+06    2.8837869E+03    5.1291533E+03    2.3971239E+06   -5.1291326E+03    2.3993693E+06
   -1.04   600.000   -1.425E+01    2.4130624E+06    1.5656517E+03    3.7826257E+03    2.4130624E+06   -3.7826072E+03    2.4152793E+06
   -1.03   600.000   -1.455E+01    2.4255848E+06    1.6220279E+02    2.3402404E+03    2.4255848E+06   -2.3402243E+03    2.4277628E+06
   -1.02   600.000   -1.485E+01    2.4361150E+06   -1.2845449E+03    8.4962657E+02    2.4361149E+06   -8.4961300E+02    2.4382491E+06
   -1.01   600.000   -1.515E+01    2.4461085E+06   -2.7286226E+03   -6.3657448E+02    2.4461085E+06    6.3658546E+02    2.4482006E+06
   -1.00   600.000   -1.546E+01    2.4568972E+06   -4.1227529E+03   -2.0641541E+03    2.4568972E+06    2.0641624E+03    2.4589558E+06
   -0.99   600.000   -1.576E+01    2.4695427E+06   -5.4215282E+03   -3.3812592E+03    2.4695427E+06    3.3812651E+03    2.4715830E+06
   -0.98   600.000   -1.607E+01    2.4847209E+06   -6.5842133E+03   -4.5417957E+03    2.4847209E+06    4.5417993E+03    2.4867633E+06
   -0.97   600.000   -1.638E+01    2.5026512E+06   -7.5763003E+03   -5.5074051E+03    2.5026512E+06    5.5074066E+03    2.5047200E+06
   -0.96   600.000   -1.669E+01    2.5230849E+06   -8.3693748E+03   -6.2475717E+03    2.5230849E+06    6.2475716E+03    2.5252067E+06
   -0.95   600.000   -1.701E+01    2.5453558E+06   -8.9395368E+03   -6.7381264E+03    2.5453558E+06    6.7381249E+03    2.5475572E+06
   -0.94   600.000   -1.733E+01    2.5684872E+06   -9.2653239E+03   -6.9591090E+03    2.5684872E+06    6.9591064E+03    2.5707934E+06
   -0.93   600.000   -1.766E+01    2.5913424E+06   -9.3264683E+03   -6.8933277E+03    2.5913424E+06    6.8933244E+03    2.5937755E+06
   -0.92   600.000   -1.798E+01    2.6127976E+06   -9.1046502E+03   -6.5267807E+03    2.6127976E+06    6.5267770E+03    2.6153755E+06
   -0.91   600.000   -1.832E+01    2.6319156E+06   -8.5867052E+03   -5.8514023E+03    2.6319156E+06    5.8513983E+03    2.6346509E+06
   -0.90   600.000   -1.865E+01    2.6480963E+06   -7.7697323E+03   -4.8696115E+03    2.6480963E+06    4.8696073E+03    2.6509964E+06
   -0.89   600.000   -1.899E+01    2.6611864E+06   -6.6666690E+03   -3.5992897E+03    2.6611864E+06    3.5992854E+03    2.6642538E+06
   -0.88   600.000   -1.934E+01    2.6715318E+06   -5.3104821E+03   -2.0774240E+03    2.6715318E+06    2.0774196E+03    2.6747649E+06
   -0.87   600.000   -1.968E+01    2.6799658E+06   -3.7553395E+03   -3.6088287E+02    2.6799658E+06    3.6087828E+02    2.6833603E+06
   -0.86   600.000   -2.003E+01    2.6877333E+06   -2.0738969E+03    1.4764612E+03    2.6877333E+06   -1.4764660E+03    2.6912837E+06
   -0.85   600.000   -2.039E+01    2.6963611E+06   -3.5088281E+02    3.3500353E+03    2.6963611E+06   -3.3500403E+03    2.7000620E+06
   -0.84   600.000   -2.075E+01    2.7074925E+06    1.3258234E+03    5.1731255E+03    2.7074926E+06   -5.1731308E+03    2.7113399E+06
   -0.83   600.000   -2.111E+01    2.7227119E+06    2.8747721E+03    6.8659231E+03    2.7227119E+06   -6.8659286E+03    2.7267031E+06
   -0.82   600.000   -2.148E+01    2.7433820E+06    4.2292081E+03    8.3631993E+03    2.7433820E+06   -8.3632051E+03    2.7475160E+06
   -0.81   600.000   -2.185E+01    2.7705179E+06    5.3424688E+03    9.6191846E+03    2.7705179E+06   -9.6191907E+03    2.7747947E+06
   -0.80   600.000   -2.222E+01    2.8047092E+06    6.1897919E+03    1.0609020E+04    2.8047093E+06   -1.0609026E+04    2.8091285E+06
   -0.79   600.000   -2.260E+01    2.8460944E+06    6.7667523E+03    1.1327051E+04    2.8460944E+06   -1.1327058E+04    2.8506547E+06
   -0.78   600.000   -2.299E+01    2.8943821E+06    7.0853140E+03    1.1782952E+04    2.8943821E+06   -1.1782959E+04    2.8990798E+06
   -0.77   600.000   -2.338E+01    2.9489081E+06    7.1688268E+03    1.1996980E+04    2.9489081E+06   -1.1996988E+04    2.9537363E+06
   -0.76   600.000   -2.377E+01    3.0087144E+06    7.0471573E+03    1.1995501E+04    3.0087145E+06   -1.1995510E+04    3.0136628E+06
   -0.75   600.000   -2.418E+01    3.0726379E+06    6.7526517E+03    1.1807438E+04    3.0726380E+06   -1.1807448E+04    3.0776927E+06
   -0.74   600.000   -2.458E+01    3.1393973E+06    6.3170666E+03    1.1461712E+04    3.1393974E+06   -1.1461725E+04    3.1445420E+06
   -0.73   600.000   -2.499E+01    3.2076726E+06    5.7692526E+03    1.0985406E+04    3.2076727E+06   -1.0985420E+04    3.2128888E+06
   -0.72   600.000   -2.541E+01    3.2761717E+06    5.1333808E+03    1.0402348E+04    3.2761717E+06   -1.0402364E+04    3.2814407E+06
   -0.71   600.000   -2.583E+01    3.3436840E+06    4.4277738E+03    9.7321191E+03    3.3436840E+06   -9.7321372E+03    3.3489884E+06
   -0.70   600.000   -2.626E+01    3.4091226E+06    3.6646893E+03    8.9897646E+03    3.4091226E+06   -8.9897847E+03    3.4144477E+06
   -0.69   600.000   -2.669E+01    3.4715564E+06    2.8514621E+03    8.1865966E+03    3.4715565E+06   -8.1866186E+03    3.4768916E+06
   -0.68   600.000   -2.713E+01    3.5302335E+06    1.9931316E+03    7.3322494E+03    3.5302335E+06   -7.3322734E+03    3.5355727E+06
   -0.67   600.000   -2.757E+01    3.5845930E+06    1.0961715E+03    6.4377012E+03    3.5845931E+06   -6.4377271E+03    3.5899346E+06
   -0.66   600.000   -2.802E+01    3.6342638E+06    1.7243290E+02    5.5185187E+03    3.6342638E+06   -5.5185465E+03    3.6396099E+06
   -0.65   600.000   -2.847E+01    3.6790466E+06   -7.5785810E+02    4.5973294E+03    3.6790466E+06   -4.5973590E+03    3.6844018E+06
   -0.64   600.000   -2.892E+01    3.7188836E+06   -1.6650897E+03    3.7046080E+03    3.7188836E+06   -3.7046394E+03    3.7242533E+06
   -0.63   600.000   -2.938E+01    3.7538204E+06   -2.5117802E+03    2.8772851E+03    3.7538204E+06   -2.8773182E+03    3.7592094E+06
   -0.62   600.000   -2.983E+01    3.7839712E+06   -3.2564127E+03    2.1553262E+03    3.7839712E+06   -2.1553608E+03    3.7893829E+06
   -0.61   600.000   -3.029E+01    3.8094956E+06   -3.8586470E+03    1.5770759E+03    3.8094956E+06   -1.5771119E+03    3.8149313E+06
   -0.60   600.000   -3.075E+01    3.8305908E+06   -4.2845396E+03    1.1745527E+03    3.8305908E+06   -1.1745898E+03    3.8360498E+06
   -0.59   600.000   -3.121E+01    3.8474979E+06   -4.5104695E+03    9.6984706E+02    3.8474978E+06   -9.6988482E+02    3.8529782E+06
   -0.58   600.000   -3.168E+01    3.8605181E+06   -4.5250120E+03    9.7332252E+02    3.8605180E+06   -9.7336062E+02    3.8660164E+06
   -0.57   600.000   -3.214E+01    3.8700281E+06   -4.3287691E+03    1.1836609E+03    3.8700281E+06   -1.1836988E+03    3.8755405E+06
   -0.56   600.000   -3.260E+01    3.8764878E+06   -3.9327951E+03    1.5892400E+03    3.8764878E+06   -1.5892774E+03    3.8820098E+06
   -0.55   600.000   -3.307E+01    3.8804328E+06   -3.3564962E+03    2.1701137E+03    3.8804328E+06   -2.1701500E+03    3.8859594E+06
   -0.54   600.000   -3.353E+01    3.8824503E+06   -2.6257177E+03    2.8999885E+03    3.8824503E+06   -2.9000232E+03    3.8879760E+06
   -0.53   600.000   -3.399E+01    3.8831407E+06   -1.7713514E+03    3.7478952E+03    3.8831407E+06   -3.7479278E+03    3.8886599E+06
   -0.52   600.000   -3.446E+01    3.8830705E+06   -8.2845096E+02    4.6795188E+03    3.8830705E+06   -4.6795491E+03    3.8885785E+06
   -0.51   600.000   -3.492E+01    3.8827265E+06    1.6435012E+02    5.6582729E+03    3.8827265E+06   -5.6583007E+03    3.8882204E+06
   -0.50   600.000   -3.538E+01    3.8824785E+06    1.1653567E+03    6.6462063E+03    3.8824786E+06   -6.6462315E+03    3.8879594E+06
   -0.49   600.000   -3.584E+01    3.8825605E+06    2.1304733E+03    7.6048045E+03    3.8825605E+06   -7.6048272E+03    3.8880348E+06
   -0.48   600.000   -3.630E+01    3.8830716E+06    3.0141729E+03    8.4957511E+03    3.8830717E+06   -8.4957715E+03    3.8885532E+06
   -0.47   600.000   -3.677E+01    3.8839996E+06    3.7708951E+03    9.2817549E+03    3.8839996E+06   -9.2817733E+03    3.8895105E+06
   -0.46   600.000   -3.723E+01    3.8852583E+06    4.3569470E+03    9.9275890E+03    3.8852584E+06   -9.9276059E+03    3.8908290E+06
   -0.45   600.000   -3.768E+01    3.8867319E+06    4.7329041E+03    1.0401485E+04    3.8867319E+06   -1.0401500E+04    3.8924005E+06
   -0.44   600.000   -3.814E+01    3.8883131E+06    4.8663855E+03    1.0676928E+04    3.8883131E+06   -1.0676943E+04    3.8941236E+06
   -0.43   600.000   -3.860E+01    3.8899300E+06    4.7349041E+03    1.0734724E+04    3.8899300E+06   -1.0734739E+04    3.8959299E+06
   -0.42   600.000   -3.905E+01    3.8915592E+06    4.3282904E+03    1.0564934E+04    3.8915592E+06   -1.0564949E+04    3.8977959E+06
   -0.41   600.000   -3.951E+01    3.8932290E+06    3.6500750E+03    1.0168117E+04    3.8932290E+06   -1.0168132E+04    3.8997471E+06
   -0.40   600.000   -3.995E+01    3.8950225E+06    2.7173175E+03    9.5553581E+03    3.8950226E+06   -9.5553738E+03    3.9018606E+06
   -0.39   600.000   -4.040E+01    3.8970856E+06    1.5587660E+03    8.7468869E+03    3.8970856E+06   -8.7469031E+03    3.9042737E+06
   -0.38   600.000   -4.084E+01    3.8996407E+06    2.1182620E+02    7.7696999E+03    3.8996407E+06   -7.7697163E+03    3.9071986E+06
   -0.37   600.000   -4.129E+01    3.9030012E+06   -1.2806837E+03    6.6550701E+03    3.9030012E+06   -6.6550864E+03    3.9109370E+06
   -0.36   600.000   -4.172E+01    3.9075736E+06   -2.8729181E+03    5.4369519E+03    3.9075736E+06   -5.4369678E+03    3.9158834E+06
   -0.35   600.000   -4.216E+01    3.9138365E+06   -4.5168792E+03    4.1518671E+03    3.9138365E+06   -4.1518823E+03    3.9225052E+06
   -0.34   600.000   -4.259E+01    3.9222903E+06   -6.1618785E+03    2.8401041E+03    3.9222903E+06   -2.8401181E+03    3.9312923E+06
   -0.33   600.000   -4.301E+01    3.9333789E+06   -7.7533632E+03    1.5473574E+03    3.9333789E+06   -1.5473697E+03    3.9426796E+06
   -0.32   600.000   -4.344E+01    3.9473964E+06   -9.2321757E+03    3.2563317E+02    3.9473964E+06   -3.2564346E+02    3.9569542E+06
   -0.31   600.000   -4.386E+01    3.9643975E+06   -1.0535177E+04   -7.6757342E+02    3.9643975E+06    7.6756561E+02    3.9741651E+06
   -0.30   600.000   -4.427E+01    3.9841319E+06   -1.1597765E+04   -1.6723340E+03    3.9841319E+06    1.6723290E+03    3.9940574E+06
   -0.29   600.000   -4.469E+01    4.0060171E+06   -1.2358423E+04   -2.3315336E+03    4.0060172E+06    2.3315317E+03    4.0160441E+06
   -0.28   600.000   -4.511E+01    4.0291579E+06   -1.2765051E+04   -2.6978010E+03    4.0291580E+06    2.6978025E+03    4.0392252E+06
   -0.27   600.000   -4.552E+01    4.0524114E+06   -1.2782503E+04   -2.7412154E+03    4.0524115E+06    2.7412201E+03    4.0624528E+06
   -0.26   600.000   -4.593E+01    4.0744904E+06   -1.2400231E+04   -2.4564841E+03    4.0744905E+06    2.4564921E+03    4.0844342E+06
   -0.25   600.000   -4.634E+01    4.0940913E+06   -1.1638401E+04   -1.8679535E+03    4.0940913E+06    1.8679645E+03    4.1038618E+06
   -0.24   600.000   -4.676E+01    4.1100298E+06   -1.0550539E+04   -1.0307435E+03    4.1100299E+06    1.0307572E+03    4.1195497E+06
   -0.23   600.000   -4.717E+01    4.1213635E+06   -9.2210338E+03   -2.6756431E+01    4.1213636E+06    2.6772362E+01    4.1305578E+06
   -0.22   600.000   -4.758E+01    4.1274793E+06   -7.7568100E+03    1.0446255E+03    4.1274794E+06   -1.0446078E+03    4.1362808E+06
   -0.21   600.000   -4.800E+01    4.1281303E+06   -6.2740936E+03    2.0798960E+03    4.1281304E+06   -2.0798772E+03    4.1364844E+06
   -0.20   600.000   -4.842E+01    4.1234146E+06   -4.8827335E+03    2.9862664E+03    4.1234147E+06   -2.9862471E+03    4.1312837E+06
   -0.19   600.000   -4.884E+01    4.1137022E+06   -3.6714689E+03    3.6947877E+03    4.1137023E+06   -3.6947683E+03    4.1210685E+06
   -0.18   600.000   -4.926E+01    4.0995283E+06   -2.6973835E+03    4.1688877E+03    4.0995284E+06   -4.1688686E+03    4.1063947E+06
   -0.17   600.000   -4.969E+01    4.0814768E+06   -1.9816325E+03    4.4066627E+03    4.0814769E+06   -4.4066445E+03    4.0878652E+06
   -0.16   600.000   -5.012E+01    4.0600820E+06   -1.5118097E+03    4.4368948E+03    4.0600820E+06   -4.4368775E+03    4.0660307E+06
   -0.15   600.000   -5.055E+01    4.0357689E+06   -1.2496822E+03    4.3102495E+03    4.0357690E+06   -4.3102335E+03    4.0413289E+06
   -0.14   600.000   -5.099E+01    4.0088470E+06   -1.1419534E+03    4.0880291E+03    4.0088470E+06   -4.0880144E+03    4.0140770E+06
   -0.13   600.000   -5.143E+01    3.9795551E+06   -1.1314570E+03    3.8310047E+03    3.9795551E+06   -3.8309915E+03    3.9845176E+06
   -0.12   600.000   -5.188E+01    3.9481462E+06   -1.1666572E+03    3.5903472E+03    3.9481463E+06   -3.5903355E+03    3.9529033E+06
   -0.11   600.000   -5.234E+01    3.9149871E+06   -1.2082292E+03    3.4017683E+03    3.9149871E+06   -3.4017580E+03    3.9195971E+06
   -0.10   600.000   -5.280E+01    3.8806413E+06   -1.2324452E+03    3.2830498E+03    3.8806414E+06   -3.2830411E+03    3.8851568E+06
   -0.09   600.000   -5.328E+01    3.8459107E+06   -1.2317812E+03    3.2344488E+03    3.8459107E+06   -3.2344416E+03    3.8503769E+06
   -0.08   600.000   -5.376E+01    3.8118170E+06   -1.2134847E+03    3.2411250E+03    3.8118170E+06   -3.2411194E+03    3.8162716E+06
   -0.07   600.000   -5.425E+01    3.7795245E+06   -1.1968913E+03    3.2766826E+03    3.7795245E+06   -3.2766785E+03    3.7839981E+06
   -0.06   600.000   -5.475E+01    3.7502186E+06   -1.2102100E+03    3.3069846E+03    3.7502186E+06   -3.3069820E+03    3.7547358E+06
   -0.05   600.000   -5.527E+01    3.7249648E+06   -1.2874151E+03    3.2935318E+03    3.7249648E+06   -3.2935307E+03    3.7295457E+06
   -0.04   600.000   -5.579E+01    3.7045770E+06   -1.4657406E+03    3.1958991E+03    3.7045770E+06   -3.1958993E+03    3.7092386E+06
   -0.03   600.000   -5.633E+01    3.6895165E+06   -1.7840221E+03    2.9730621E+03    3.6895165E+06   -2.9730636E+03    3.6942735E+06
   -0.02   600.000   -5.688E+01    3.6798351E+06   -2.2817455E+03    2.5838768E+03    3.6798351E+06   -2.5838795E+03    3.6847007E+06
   -0.01   600.000   -5.744E+01    3.6751675E+06   -2.9982833E+03    1.9873725E+03    3.6751675E+06   -1.9873762E+03    3.6801531E+06
    0.00   600.000   -5.801E+01    3.6747681E+06   -3.9716108E+03    1.1436780E+03    3.6747681E+06   -1.1436824E+03    3.6798834E+06
    0.01   600.000   -5.859E+01    3.6775867E+06   -5.2359552E+03    1.6192189E+01    3.6775867E+06   -1.6197115E+01    3.6828389E+06
    0.02   600.000   -5.918E+01    3.6823714E+06   -6.8183526E+03   -1.4249634E+03    3.6823714E+06    1.4249584E+03    3.6877648E+06
    0.03   600.000   -5.978E+01    3.6877882E+06   -8.7347751E+03   -3.1989112E+03    3.6877882E+06    3.1989064E+03    3.6933241E+06
    0.04   600.000   -6.039E+01    3.6925461E+06   -1.0986988E+04   -5.3106381E+03    3.6925462E+06    5.3106339E+03    3.6982225E+06
    0.05   600.000   -6.100E+01    3.6955146E+06   -1.3561288E+04   -7.7495222E+03    3.6955146E+06    7.7495191E+03    3.7013264E+06
    0.06   600.000   -6.163E+01    3.6958236E+06   -1.6429669E+04   -1.0490422E+04    3.6958236E+06    1.0490420E+04    3.7017629E+06
    0.07   600.000   -6.226E+01    3.6929363E+06   -1.9553086E+04   -1.3497057E+04    3.6929363E+06    1.3497056E+04    3.6989924E+06
    0.08   600.000   -6.289E+01    3.6866871E+06   -2.2885787E+04   -1.6726647E+04    3.6866871E+06    1.6726648E+04    3.6928463E+06
    0.09   600.000   -6.353E+01    3.6772810E+06   -2.6379564E+04   -2.0134572E+04    3.6772810E+06    2.0134574E+04    3.6835260E+06
    0.10   600.000   -6.418E+01    3.6652546E+06   -2.9987258E+04   -2.3678193E+04    3.6652546E+06    2.3678197E+04    3.6715637E+06
    0.11   600.000   -6.483E+01    3.6514051E+06   -3.3665468E+04   -2.7319625E+04    3.6514051E+06    2.7319630E+04    3.6577509E+06
    0.12   600.000   -6.548E+01    3.6366966E+06   -3.7376833E+04   -3.1027664E+04    3.6366966E+06    3.1027669E+04    3.6430458E+06
    0.13   600.000   -6.614E+01    3.6221575E+06   -4.1092088E+04   -3.4779089E+04    3.6221575E+06    3.4779095E+04    3.6284705E+06
    0.14   600.000   -6.681E+01    3.6087824E+06   -4.4791639E+04   -3.8559187E+04    3.6087824E+06    3.8559193E+04    3.6150149E+06
    0.15   600.000   -6.748E+01    3.5974507E+06   -4.8466012E+04   -4.2361091E+04    3.5974507E+06    4.2361098E+04    3.6035556E+06
    0.16   600.000   -6.816E+01    3.5888706E+06   -5.2114565E+04   -4.6183621E+04    3.5888706E+06    4.6183627E+04    3.5948016E+06
    0.17   600.000   -6.884E+01    3.5835521E+06   -5.5742433E+04   -5.0027770E+04    3.5835521E+06    5.0027776E+04    3.5892668E+06
    0.18   600.000   -6.953E+01    3.5818044E+06   -5.9356404E+04   -5.3892669E+04    3.5818045E+06    5.3892675E+04    3.5872682E+06
    0.19   600.000   -7.023E+01    3.5837493E+06   -6.2960974E+04   -5.7772206E+04    3.5837494E+06    5.7772213E+04    3.5889381E+06
    0.20   600.000   -7.094E+01    3.5893365E+06   -6.6555798E+04   -6.1653367E+04    3.5893366E+06    6.1653374E+04    3.5942390E+06
    0.21   600.000   -7.165E+01    3.5983531E+06   -7.0135132E+04   -6.5516723E+04    3.5983532E+06    6.5516732E+04    3.6029716E+06
    0.22   600.000   -7.237E+01    3.6104229E+06   -7.3688947E+04   -6.9338541E+04    3.6104230E+06    6.9338551E+04    3.6147734E+06
    0.23   600.000   -7.310E+01    3.6250016E+06   -7.7204508E+04   -7.3093223E+04    3.6250017E+06    7.3093235E+04    3.6291129E+06
    0.24   600.000   -7.383E+01    3.6413790E+06   -8.0666948E+04   -7.6754511E+04    3.6413791E+06    7.6754526E+04    3.6452916E+06
    0.25   600.000   -7.457E+01    3.6587002E+06   -8.4057739E+04   -8.0294396E+04    3.6587003E+06    8.0294414E+04    3.6624637E+06
    0.26   600.000   -7.531E+01    3.6760112E+06   -8.7351088E+04   -8.3679748E+04    3.6760113E+06    8.3679770E+04    3.6796826E+06
    0.27   600.000   -7.606E+01    3.6923304E+06   -9.0509572E+04   -8.6868055E+04    3.6923306E+06    8.6868080E+04    3.6959721E+06
    0.28   600.000   -7.682E+01    3.7067383E+06   -9.3481260E+04   -8.9804561E+04    3.7067385E+06    8.9804590E+04    3.7104152E+06
    0.29   600.000   -7.758E+01    3.7184726E+06   -9.6200604E+04   -9.2423144E+04    3.7184727E+06    9.2423176E+04    3.7222502E+06
    0.30   600.000   -7.834E+01    3.7270161E+06   -9.8594359E+04   -9.4652204E+04    3.7270162E+06    9.4652238E+04    3.7309584E+06
    0.31   600.000   -7.911E+01    3.7321652E+06   -1.0059198E+05   -9.6425050E+04    3.7321654E+06    9.6425086E+04    3.7363323E+06
    0.32   600.000   -7.989E+01    3.7340696E+06   -1.0213809E+05   -9.7692398E+04    3.7340698E+06    9.7692435E+04    3.7385154E+06
    0.33   600.000   -8.066E+01    3.7332376E+06   -1.0320362E+05   -9.8433448E+04    3.7332378E+06    9.8433485E+04    3.7380079E+06
    0.34   600.000   -8.144E+01    3.7305067E+06   -1.0379197E+05   -9.8662090E+04    3.7305069E+06    9.8662127E+04    3.7356367E+06
    0.35   600.000   -8.223E+01    3.7269776E+06   -1.0393842E+05   -9.8426105E+04    3.7269778E+06    9.8426140E+04    3.7324901E+06
    0.36   600.000   -8.301E+01    3.7239162E+06   -1.0370251E+05   -9.7799280E+04    3.7239164E+06    9.7799312E+04    3.7298196E+06
    0.37   600.000   -8.380E+01    3.7226292E+06   -1.0315561E+05   -9.6868483E+04    3.7226294E+06    9.6868512E+04    3.7289165E+06
    0.38   600.000   -8.460E+01    3.7243266E+06   -1.0236711E+05   -9.5719080E+04    3.7243267E+06    9.5719105E+04    3.7309748E+06
    0.39   600.000   -8.539E+01    3.7299866E+06   -1.0139275E+05   -9.4422334E+04    3.7299868E+06    9.4422355E+04    3.7369572E+06
    0.40   600.000   -8.619E+01    3.7402446E+06   -1.0026797E+05   -9.3027576E+04    3.7402448E+06    9.3027593E+04    3.7474852E+06
    0.41   600.000   -8.700E+01    3.7553200E+06   -9.9007109E+04   -9.1560402E+04    3.7553201E+06    9.1560415E+04    3.7627668E+06
    0.42   600.000   -8.781E+01    3.7749936E+06   -9.7608198E+04   -9.0026522E+04    3.7749938E+06    9.0026530E+04    3.7825754E+06
    0.43   600.000   -8.863E+01    3.7986344E+06   -9.6061366E+04   -8.8419631E+04    3.7986346E+06    8.8419635E+04    3.8062763E+06
    0.44   600.000   -8.945E+01    3.8252663E+06   -9.4358519E+04   -8.6731005E+04    3.8252665E+06    8.6731004E+04    3.8328940E+06
    0.45   600.000   -9.028E+01    3.8536606E+06   -9.2501844E+04   -8.4958390E+04    3.8536607E+06    8.4958386E+04    3.8612042E+06
    0.46   600.000   -9.112E+01    3.8824368E+06   -9.0509041E+04   -8.3112059E+04    3.8824369E+06    8.3112053E+04    3.8898339E+06
    0.47   600.000   -9.197E+01    3.9101570E+06   -8.8413894E+04   -8.1216488E+04    3.9101571E+06    8.1216479E+04    3.9173545E+06
    0.48   600.000   -9.282E+01    3.9354048E+06   -8.6261724E+04   -7.9307004E+04    3.9354049E+06    7.9306993E+04    3.9423597E+06
    0.49   600.000   -9.369E+01    3.9568461E+06   -8.4100462E+04   -7.7421944E+04    3.9568461E+06    7.7421932E+04    3.9635247E+06
    0.50   600.000   -9.456E+01    3.9732738E+06   -8.1969381E+04   -7.5592156E+04    3.9732739E+06    7.5592143E+04    3.9796511E+06
    0.51   600.000   -9.544E+01    3.9836451E+06   -7.9888511E+04   -7.3830744E+04    3.9836452E+06    7.3830731E+04    3.9897030E+06
    0.52   600.000   -9.633E+01    3.9871149E+06   -7.7852017E+04   -7.2126351E+04    3.9871149E+06    7.2126338E+04    3.9928406E+06
    0.53   600.000   -9.722E+01    3.9830696E+06   -7.5828086E+04   -7.0442594E+04    3.9830697E+06    7.0442582E+04    3.9884552E+06
    0.54   600.000   -9.813E+01    3.9711596E+06   -7.3766118E+04   -6.8724675E+04    3.9711597E+06    6.8724665E+04    3.9762011E+06
    0.55   600.000   -9.904E+01    3.9513215E+06   -7.1609872E+04   -6.6912029E+04    3.9513215E+06    6.6912019E+04    3.9560194E+06
    0.56   600.000   -9.995E+01    3.9237833E+06   -6.9313339E+04   -6.4953930E+04    3.9237833E+06    6.4953922E+04    3.9281428E+06
    0.57   600.000   -1.009E+02    3.8890444E+06   -6.6855097E+04   -6.2823900E+04    3.8890445E+06    6.2823894E+04    3.8930757E+06
    0.58   600.000   -1.018E+02    3.8478270E+06   -6.4247247E+04   -6.0528952E+04    3.8478271E+06    6.0528948E+04    3.8515454E+06
    0.59   600.000   -1.027E+02    3.8010007E+06   -6.1536515E+04   -5.8111141E+04    3.8010008E+06    5.8111138E+04    3.8044262E+06
    0.60   600.000   -1.036E+02    3.7494895E+06   -5.8797294E+04   -5.5641044E+04    3.7494896E+06    5.5641043E+04    3.7526458E+06
    0.61   600.000   -1.046E+02    3.6941726E+06   -5.6118503E+04   -5.3204942E+04    3.6941727E+06    5.3204944E+04    3.6970863E+06
    0.62   600.000   -1.055E+02    3.6357960E+06   -5.3587476E+04   -5.0888850E+04    3.6357961E+06    5.0888853E+04    3.6384947E+06
    0.63   600.000   -1.064E+02    3.5749092E+06   -5.1274329E+04   -4.8762840E+04    3.5749092E+06    4.8762844E+04    3.5774207E+06
    0.64   600.000   -1.073E+02    3.5118405E+06   -4.9219596E+04   -4.6868513E+04    3.5118406E+06    4.6868518E+04    3.5141917E+06
    0.65   600.000   -1.082E+02    3.4467147E+06   -4.7426850E+04   -4.5211369E+04    3.4467148E+06    4.5211375E+04    3.4489302E+06
    0.66   600.000   -1.091E+02    3.3795085E+06   -4.5860997E+04   -4.3758848E+04    3.3795086E+06    4.3758854E+04    3.3816108E+06
    0.67   600.000   -1.100E+02    3.3101329E+06   -4.4452233E+04   -4.2444051E+04    3.3101330E+06    4.2444058E+04    3.3121412E+06
    0.68   600.000   -1.108E+02    3.2385219E+06   -4.3105082E+04   -4.1174600E+04    3.2385220E+06    4.1174606E+04    3.2404525E+06
    0.69   600.000   -1.117E+02    3.1647120E+06   -4.1711403E+04   -3.9845496E+04    3.1647121E+06    3.9845502E+04    3.1665780E+06
    0.70   600.000   -1.125E+02    3.0888961E+06   -4.0165646E+04   -3.8354270E+04    3.0888962E+06    3.8354274E+04    3.0907075E+06
    0.71   600.000   -1.133E+02    3.0114454E+06   -3.8380086E+04   -3.6616118E+04    3.0114455E+06    3.6616121E+04    3.0132095E+06
    0.72   600.000   -1.141E+02    2.9329023E+06   -3.6297540E+04   -3.4576532E+04    2.9329025E+06    3.4576534E+04    2.9346235E+06
    0.73   600.000   -1.149E+02    2.8539497E+06   -3.3899330E+04   -3.2219189E+04    2.8539498E+06    3.2219189E+04    2.8556300E+06
    0.74   600.000   -1.157E+02    2.7753698E+06   -3.1207105E+04   -2.9567701E+04    2.7753699E+06    2.9567700E+04    2.7770093E+06
    0.75   600.000   -1.164E+02    2.6980018E+06   -2.8278344E+04   -2.6681092E+04    2.6980019E+06    2.6681090E+04    2.6995991E+06
    0.76   600.000   -1.171E+02    2.6227055E+06   -2.5196721E+04   -2.3644161E+04    2.6227056E+06    2.3644158E+04    2.6242582E+06
    0.77   600.000   -1.178E+02    2.5503338E+06   -2.2059526E+04   -2.0554939E+04    2.5503339E+06    2.0554936E+04    2.5518385E+06
    0.78   600.000   -1.185E+02    2.4817138E+06   -1.8964844E+04   -1.7511920E+04    2.4817139E+06    1.7511917E+04    2.4831669E+06
    0.79   600.000   -1.191E+02    2.4176335E+06   -1.6000976E+04   -1.4603546E+04    2.4176336E+06    1.4603543E+04    2.4190310E+06
    0.80   600.000   -1.198E+02    2.3588307E+06   -1.3239822E+04   -1.1901616E+04    2.3588307E+06    1.1901614E+04    2.3601689E+06
    0.81   600.000   -1.204E+02    2.3059813E+06   -1.0734692E+04   -9.4591194E+03    2.3059814E+06    9.4591186E+03    2.3072570E+06
    0.82   600.000   -1.210E+02    2.2596844E+06   -8.5218563E+03   -7.3117586E+03    2.2596845E+06    7.3117589E+03    2.2608946E+06
    0.83   600.000   -1.216E+02    2.2204420E+06   -6.6241833E+03   -5.4815634E+03    2.2204421E+06    5.4815651E+03    2.2215847E+06
    0.84   600.000   -1.221E+02    2.1886360E+06   -5.0549066E+03   -3.9806417E+03    2.1886361E+06    3.9806449E+03    2.1897103E+06
    0.85   600.000   -1.226E+02    2.1644993E+06   -3.8199038E+03   -2.8134805E+03    2.1644994E+06    2.8134852E+03    2.1655058E+06
    0.86   600.000   -1.232E+02    2.1480846E+06   -2.9177563E+03   -1.9770731E+03    2.1480847E+06    1.9770794E+03    2.1490254E+06
    0.87   600.000   -1.237E+02    2.1392306E+06   -2.3379558E+03   -1.4592369E+03    2.1392307E+06    1.4592447E+03    2.1401094E+06
    0.88   600.000   -1.242E+02    2.1375291E+06   -2.0585330E+03   -1.2363783E+03    2.1375291E+06    1.2363874E+03    2.1383513E+06
    0.89   600.000   -1.247E+02    2.1422972E+06   -2.0447530E+03   -1.2723246E+03    2.1422973E+06    1.2723348E+03    2.1430697E+06
    0.90   600.000   -1.252E+02    2.1525633E+06   -2.2501990E+03   -1.5195229E+03    2.1525633E+06    1.5195341E+03    2.1532940E+06
    0.91   600.000   -1.256E+02    2.1670741E+06   -2.6206911E+03   -1.9230384E+03    2.1670742E+06    1.9230504E+03    2.1677718E+06
    0.92   600.000   -1.261E+02    2.1843339E+06   -3.1004190E+03   -2.4267252E+03    2.1843340E+06    2.4267377E+03    2.1850077E+06
    0.93   600.000   -1.266E+02    2.2026796E+06   -3.6388386E+03   -2.9801206E+03    2.2026797E+06    2.9801335E+03    2.2033384E+06
    0.94   600.000   -1.271E+02    2.2203895E+06   -4.1966016E+03   -3.5443390E+03    2.2203895E+06    3.5443521E+03    2.2210418E+06
    0.95   600.000   -1.276E+02    2.2358132E+06   -4.7491167E+03   -4.0955674E+03    2.2358133E+06    4.0955807E+03    2.2364668E+06
    0.96   600.000   -1.280E+02    2.2475049E+06   -5.2871005E+03   -4.6255252E+03    2.2475050E+06    4.6255387E+03    2.2481666E+06
    0.97   600.000   -1.285E+02    2.2543356E+06   -5.8143615E+03   -5.1391375E+03    2.2543357E+06    5.1391512E+03    2.2550109E+06
    0.98   600.000   -1.290E+02    2.2555682E+06   -6.3437569E+03   -5.6503653E+03    2.2555682E+06    5.6503794E+03    2.2562616E+06
    0.99   600.000   -1.295E+02    2.2508853E+06   -6.8925625E+03   -6.1774429E+03    2.2508854E+06    6.1774575E+03    2.2516005E+06
    1.00   600.000   -1.300E+02    2.2403715E+06   -7.4783602E+03   -6.7386369E+03    2.2403715E+06    6.7386521E+03    2.2411112E+06
    1.01   600.000   -1.305E+02    2.2244598E+06   -8.1161072E+03   -7.3492046E+03    2.2244598E+06    7.3492205E+03    2.2252267E+06
    1.02   600.000   -1.309E+02    2.2038602E+06   -8.8165320E+03   -8.0197081E+03    2.2038603E+06    8.0197248E+03    2.2046571E+06
    1.03   600.000   -1.314E+02    2.1794849E+06   -9.5856245E+03   -8.7554621E+03    2.1794849E+06    8.7554796E+03    2.1803151E+06
    1.04   600.000   -1.319E+02    2.1523807E+06   -1.0424836E+04   -9.5567393E+03    2.1523807E+06    9.5567577E+03    2.1532488E+06
    1.05   600.000   -1.325E+02    2.1236754E+06   -1.1331646E+04   -1.0419388E+04    2.1236754E+06    1.0419408E+04    2.1245877E+06
    1.06   600.000   -1.330E+02    2.0945315E+06   -1.2300240E+04   -1.1335613E+04    2.0945316E+06    1.1335633E+04    2.0954962E+06
    1.07   600.000   -1.335E+02    2.0661035E+06   -1.3322147E+04   -1.2294740E+04    2.0661036E+06    1.2294761E+04    2.0671310E+06
    1.08   600.000   -1.340E+02    2.0394902E+06   -1.4386704E+04   -1.3283851E+04    2.0394902E+06    1.3283872E+04    2.0405931E+06
    1.09   600.000   -1.346E+02    2.0156812E+06   -1.5481341E+04   -1.4288246E+04    2.0156812E+06    1.4288268E+04    2.0168743E+06
    1.10   600.000   -1.351E+02    1.9955013E+06   -1.6591787E+04   -1.5291836E+04    1.9955013E+06    1.5291858E+04    1.9968013E+06
    1.11   600.000   -1.357E+02    1.9795595E+06   -1.7702414E+04   -1.6277673E+04    1.9795595E+06    1.6277695E+04    1.9809843E+06
    1.12   600.000   -1.363E+02    1.9682141E+06   -1.8797024E+04   -1.7228893E+04    1.9682141E+06    1.7228915E+04    1.9697822E+06
    1.13   600.000   -1.369E+02    1.9615591E+06   -1.9860196E+04   -1.8130209E+04    1.9615591E+06    1.8130232E+04    1.9632891E+06
    1.14   600.000   -1.375E+02    1.9594376E+06   -2.0879084E+04   -1.8969789E+04    1.9594376E+06    1.8969812E+04    1.9613469E+06
    1.15   600.000   -1.381E+02    1.9614769E+06   -2.1845218E+04   -1.9741089E+04    1.9614769E+06    1.9741111E+04    1.9635810E+06
    1.16   600.000   -1.388E+02    1.9671400E+06   -2.2755686E+04   -2.0444003E+04    1.9671400E+06    2.0444026E+04    1.9694517E+06
    1.17   600.000   -1.394E+02    1.9757831E+06   -2.3613147E+04   -2.1084773E+04    1.9757831E+06    2.1084796E+04    1.9783115E+06
    1.18   600.000   -1.401E+02    1.9867100E+06   -2.4424432E+04   -2.1674418E+04    1.9867100E+06    2.1674441E+04    1.9894600E+06
    1.19   600.000   -1.408E+02    1.9992171E+06   -2.5198018E+04   -2.2225992E+04    1.9992170E+06    2.2226016E+04    2.0021890E+06
    1.20   600.000   -1.415E+02    2.0126268E+06   -2.5941149E+04   -2.2751449E+04    2.0126267E+06    2.2751474E+04    2.0158164E+06
    1.21   600.000   -1.423E+02    2.0263094E+06   -2.6657609E+04   -2.3259167E+04    2.0263093E+06    2.3259194E+04    2.0297078E+06
    1.22   600.000   -1.430E+02    2.0396955E+06   -2.7346986E+04   -2.3752997E+04    2.0396955E+06    2.3753025E+04    2.0432895E+06
    1.23   600.000   -1.438E+02    2.0522811E+06   -2.8005684E+04   -2.4233137E+04    2.0522811E+06    2.4233168E+04    2.0560536E+06
    1.24   600.000   -1.446E+02    2.0636286E+06   -2.8629200E+04   -2.4698385E+04    2.0636285E+06    2.4698418E+04    2.0675593E+06
    1.25   600.000   -1.455E+02    2.0733668E+06   -2.9214642E+04   -2.5148703E+04    2.0733668E+06    2.5148738E+04    2.0774327E+06
    1.26   600.000   -1.463E+02    2.0811945E+06   -2.9762330E+04   -2.5586910E+04    2.0811944E+06    2.5586948E+04    2.0853698E+06
    1.27   600.000   -1.472E+02    2.0868865E+06   -3.0275692E+04   -2.6018654E+04    2.0868864E+06    2.6018694E+04    2.0911434E+06
    1.28   600.000   -1.482E+02    2.0903039E+06   -3.0759415E+04   -2.6450526E+04    2.0903038E+06    2.6450569E+04    2.0946127E+06
    1.29   600.000   -1.491E+02    2.0914022E+06   -3.1216564E+04   -2.6887038E+04    2.0914021E+06    2.6887082E+04    2.0957316E+06
    1.30   600.000   -1.501E+02    2.0902317E+06   -3.1645890E+04   -2.7327654E+04    2.0902316E+06    2.7327699E+04    2.0945499E+06
    1.31   600.000   -1.512E+02    2.0869292E+06   -3.2040556E+04   -2.7765189E+04    2.0869291E+06    2.7765234E+04    2.0912045E+06
    1.32   600.000   -1.522E+02    2.0817000E+06   -3.2388975E+04   -2.8186370E+04    2.0816999E+06    2.8186415E+04    2.0859025E+06
    1.33   600.000   -1.533E+02    2.0747989E+06   -3.2677626E+04   -2.8574519E+04    2.0747988E+06    2.8574564E+04    2.0789019E+06
    1.34   600.000   -1.544E+02    2.0665170E+06   -3.2894870E+04   -2.8913469E+04    2.0665169E+06    2.8913512E+04    2.0704983E+06
    1.35   600.000   -1.556E+02    2.0571828E+06   -3.3034392E+04   -2.9191360E+04    2.0571826E+06    2.9191402E+04    2.0610257E+06
    1.36   600.000   -1.568E+02    2.0471765E+06   -3.3097035E+04   -2.9403025E+04    2.0471764E+06    2.9403065E+04    2.0508704E+06
    1.37   600.000   -1.580E+02    2.0369547E+06   -3.3090466E+04   -2.9550268E+04    2.0369546E+06    2.9550306E+04    2.0404948E+06
    1.38   600.000   -1.593E+02    2.0270724E+06   -3.3026916E+04   -2.9640158E+04    2.0270723E+06    2.9640194E+04    2.0304591E+06
    1.39   600.000   -1.606E+02    2.0181917E+06   -3.2919907E+04   -2.9682121E+04    2.0181916E+06    2.9682154E+04    2.0214294E+06
    1.40   600.000   -1.619E+02    2.0110661E+06   -3.2781072E+04   -2.9684887E+04    2.0110660E+06    2.9684918E+04    2.0141622E+06
    1.41   600.000   -1.632E+02    2.0064979E+06   -3.2617925E+04   -2.9654180E+04    2.0064977E+06    2.9654208E+04    2.0094615E+06
    1.42   600.000   -1.645E+02    2.0052702E+06   -3.2432931E+04   -2.9591554E+04    2.0052700E+06    2.9591580E+04    2.0081114E+06
    1.43   600.000   -1.658E+02    2.0080655E+06   -3.2223674E+04   -2.9494297E+04    2.0080654E+06    2.9494320E+04    2.0107948E+06
    1.44   600.000   -1.671E+02    2.0153838E+06   -3.1983623E+04   -2.9355979E+04    2.0153837E+06    2.9355999E+04    2.0180113E+06
    1.45   600.000   -1.683E+02    2.0274752E+06   -3.1702983E+04   -2.9167172E+04    2.0274750E+06    2.9167190E+04    2.0300108E+06
    1.46   600.000   -1.696E+02    2.0442993E+06   -3.1369293E+04   -2.8916038E+04    2.0442992E+06    2.8916053E+04    2.0467524E+06
    1.47   600.000   -1.708E+02    2.0655178E+06   -3.0967785E+04   -2.8588732E+04    2.0655176E+06    2.8588743E+04    2.0678967E+06
    1.48   600.000   -1.720E+02    2.0905187E+06   -3.0481723E+04   -2.8169824E+04    2.0905185E+06    2.8169832E+04    2.0928304E+06
    1.49   600.000   -1.732E+02    2.1184673E+06   -2.9893143E+04   -2.7643073E+04    2.1184672E+06    2.7643078E+04    2.1207172E+06
    1.50   600.000   -1.743E+02    2.1483746E+06   -2.9184327E+04   -2.6992865E+04    2.1483744E+06    2.6992867E+04    2.1505659E+06
    1.51   600.000   -1.754E+02    2.1791724E+06   -2.8340178E+04   -2.6206438E+04    2.1791723E+06    2.6206437E+04    2.1813060E+06
    1.52   600.000   -1.765E+02    2.2097904E+06   -2.7351302E+04   -2.5276721E+04    2.2097902E+06    2.5276718E+04    2.2118648E+06
    1.53   600.000   -1.775E+02    2.2392282E+06   -2.6217265E+04   -2.4205278E+04    2.2392280E+06    2.4205273E+04    2.2412400E+06
    1.54   600.000   -1.785E+02    2.2666228E+06   -2.4949248E+04   -2.3004618E+04    2.2666227E+06    2.3004611E+04    2.2685673E+06
    1.55   600.000   -1.795E+02    2.2913067E+06   -2.3571298E+04   -2.1699169E+04    2.2913065E+06    2.1699161E+04    2.2931786E+06
    1.56   600.000   -1.804E+02    2.3128532E+06   -2.2119678E+04   -2.0324444E+04    2.3128531E+06    2.0324436E+04    2.3146483E+06
    1.57   600.000   -1.813E+02    2.3311045E+06   -2.0640232E+04   -1.8924384E+04    2.3311044E+06    1.8924376E+04    2.3328202E+06
    1.58   600.000   -1.821E+02    2.3461753E+06   -1.9184221E+04   -1.7547337E+04    2.3461751E+06    1.7547329E+04    2.3478120E+06
    1.59   600.000   -1.830E+02    2.3584310E+06   -1.7803449E+04   -1.6241450E+04    2.3584308E+06    1.6241443E+04    2.3599928E+06
    1.60   600.000   -1.838E+02    2.3684427E+06   -1.6545602E+04   -1.5050374E+04    2.3684426E+06    1.5050368E+04    2.3699378E+06
    1.61   600.000   -1.846E+02    2.3769251E+06   -1.5450594E+04   -1.4009970E+04    2.3769250E+06    1.4009967E+04    2.3783656E+06
    1.62   600.000   -1.854E+02    2.3846658E+06   -1.4548282E+04   -1.3146369E+04    2.3846657E+06    1.3146367E+04    2.3860676E+06
    1.63   600.000   -1.861E+02    2.3924558E+06   -1.3857555E+04   -1.2475318E+04    2.3924557E+06    1.2475319E+04    2.3938379E+06
    1.64   600.000   -1.869E+02    2.4010273E+06   -1.3386435E+04   -1.2002490E+04    2.4010272E+06    1.2002493E+04    2.4024112E+06
    1.65   600.000   -1.876E+02    2.4110050E+06   -1.3132710E+04   -1.1724257E+04    2.4110049E+06    1.1724262E+04    2.4124134E+06
    1.66   600.000   -1.884E+02    2.4228736E+06   -1.3084667E+04   -1.1628542E+04    2.4228736E+06    1.1628548E+04    2.4243297E+06
    1.67   600.000   -1.891E+02    2.4369654E+06   -1.3221717E+04   -1.1695553E+04    2.4369654E+06    1.1695561E+04    2.4384915E+06
    1.68   600.000   -1.899E+02    2.4534653E+06   -1.3515008E+04   -1.1898495E+04    2.4534653E+06    1.1898504E+04    2.4550818E+06
    1.69   600.000   -1.906E+02    2.4724326E+06   -1.3928373E+04   -1.2204596E+04    2.4724325E+06    1.2204606E+04    2.4741563E+06
    1.70   600.000   -1.913E+02    2.4938305E+06   -1.4420060E+04   -1.2576853E+04    2.4938305E+06    1.2576862E+04    2.4956737E+06
    1.71   600.000   -1.920E+02    2.5175575E+06   -1.4945509E+04   -1.2976685E+04    2.5175574E+06    1.2976694E+04    2.5195263E+06
    1.72   600.000   -1.927E+02    2.5434699E+06   -1.5461037E+04   -1.3367352E+04    2.5434699E+06    1.3367360E+04    2.5455636E+06
    1.73   600.000   -1.934E+02    2.5713938E+06   -1.5927903E+04   -1.3717500E+04    2.5713938E+06    1.3717506E+04    2.5736042E+06
    1.74   600.000   -1.941E+02    2.6011251E+06   -1.6315891E+04   -1.4004071E+04    2.6011251E+06    1.4004076E+04    2.6034369E+06
    1.75   600.000   -1.949E+02    2.6324253E+06   -1.6605711E+04   -1.4213891E+04    2.6324253E+06    1.4213894E+04    2.6348172E+06
    1.76   600.000   -1.956E+02    2.6650219E+06   -1.6789860E+04   -1.4343740E+04    2.6650219E+06    1.4343740E+04    2.6674680E+06
    1.77   600.000   -1.963E+02    2.6986219E+06   -1.6872139E+04   -1.4399267E+04    2.6986219E+06    1.4399265E+04    2.7010948E+06
    1.78   600.000   -1.970E+02    2.7329454E+06   -1.6866465E+04   -1.4393496E+04    2.7329454E+06    1.4393491E+04    2.7354184E+06
    1.79   600.000   -1.977E+02    2.7677766E+06   -1.6795660E+04   -1.4345687E+04    2.7677766E+06    1.4345679E+04    2.7702265E+06
    1.80   600.000   -1.984E+02    2.8030249E+06   -1.6690672E+04   -1.4280982E+04    2.8030250E+06    1.4280971E+04    2.8054346E+06
    1.81   600.000   -1.991E+02    2.8387823E+06   -1.6590152E+04   -1.4230648E+04    2.8387823E+06    1.4230634E+04    2.8411418E+06
    1.82   600.000   -1.998E+02    2.8753575E+06   -1.6539771E+04   -1.4232168E+04    2.8753575E+06    1.4232152E+04    2.8776651E+06
    1.83   600.000   -2.005E+02    2.9132757E+06   -1.6590377E+04   -1.4328169E+04    2.9132757E+06    1.4328150E+04    2.9155379E+06
    1.84   600.000   -2.013E+02    2.9532311E+06   -1.6794219E+04   -1.4563291E+04    2.9532311E+06    1.4563270E+04    2.9554621E+06
    1.85   600.000   -2.020E+02    2.9959980E+06   -1.7199082E+04   -1.4978826E+04    2.9959980E+06    1.4978804E+04    2.9982183E+06
    1.86   600.000   -2.027E+02    3.0423102E+06   -1.7841085E+04   -1.5605864E+04    3.0423102E+06    1.5605839E+04    3.0445454E+06
    1.87   600.000   -2.034E+02    3.0927334E+06   -1.8737767E+04   -1.6458577E+04    3.0927334E+06    1.6458550E+04    3.0950126E+06
    1.88   600.000   -2.042E+02    3.1475538E+06   -1.9883480E+04   -1.7529710E+04    3.1475538E+06    1.7529682E+04    3.1499076E+06
    1.89   600.000   -2.049E+02    3.2067071E+06   -2.1248757E+04   -1.8789961E+04    3.2067071E+06    1.8789931E+04    3.2091659E+06
    1.90   600.000   -2.056E+02    3.2697619E+06   -2.2784303E+04   -2.0191889E+04    3.2697619E+06    2.0191857E+04    3.2723543E+06
    1.91   600.000   -2.064E+02    3.3359624E+06   -2.4428824E+04   -2.1677612E+04    3.3359624E+06    2.1677578E+04    3.3387136E+06
    1.92   600.000   -2.071E+02    3.4043225E+06   -2.6118786E+04   -2.3188356E+04    3.4043225E+06    2.3188319E+04    3.4072529E+06
    1.93   600.000   -2.079E+02    3.4737545E+06   -2.7797732E+04   -2.4673490E+04    3.4737545E+06    2.4673451E+04    3.4768787E+06
    1.94   600.000   -2.087E+02    3.5432134E+06   -2.9423145E+04   -2.6097046E+04    3.5432133E+06    2.6097005E+04    3.5465394E+06
    1.95   600.000   -2.095E+02    3.6118347E+06   -3.0969845E+04   -2.7440693E+04    3.6118347E+06    2.7440650E+04    3.6153639E+06
    1.96   600.000   -2.102E+02    3.6790526E+06   -3.2429956E+04   -2.8703226E+04    3.6790525E+06    2.8703181E+04    3.6827793E+06
    1.97   600.000   -2.110E+02    3.7446853E+06   -3.3810198E+04   -2.9897351E+04    3.7446852E+06    2.9897305E+04    3.7485981E+06
    1.98   600.000   -2.118E+02    3.8089861E+06   -3.5127488E+04   -3.1044786E+04    3.8089860E+06    3.1044739E+04    3.8130687E+06
    1.99   600.000   -2.126E+02    3.8726538E+06   -3.6403700E+04   -3.2170597E+04    3.8726538E+06    3.2170549E+04    3.8768869E+06
    2.00   600.000   -2.134E+02    3.9368020E+06   -3.7660313E+04   -3.3297585E+04    3.9368020E+06    3.3297536E+04    3.9411647E+06
    2.01   600.000   -2.143E+02    4.0028826E+06   -3.8913625E+04   -3.4441451E+04    4.0028826E+06    3.4441402E+04    4.0073547E+06
    2.02   600.000   -2.151E+02    4.0725659E+06   -4.0171208E+04   -3.5607452E+04    4.0725658E+06    3.5607404E+04    4.0771296E+06
    2.03   600.000   -2.159E+02    4.1475812E+06   -4.1430144E+04   -3.6789031E+04    4.1475812E+06    3.6788983E+04    4.1522223E+06
    2.04   600.000   -2.167E+02    4.2295336E+06   -4.2677230E+04   -3.7968521E+04    4.2295336E+06    3.7968473E+04    4.2342423E+06
    2.05   600.000   -2.175E+02    4.3197184E+06   -4.3890939E+04   -3.9119593E+04    4.3197184E+06    3.9119546E+04    4.3244897E+06
    2.06   600.000   -2.183E+02    4.4189584E+06   -4.5044677E+04   -4.0210872E+04    4.4189584E+06    4.0210825E+04    4.4237922E+06
    2.07   600.000   -2.191E+02    4.5274887E+06   -4.6110804E+04   -4.1210172E+04    4.5274886E+06    4.1210127E+04    4.5323892E+06
    2.08   600.000   -2.199E+02    4.6449037E+06   -4.7064976E+04   -4.2088939E+04    4.6449037E+06    4.2088895E+04    4.6498797E+06
    2.09   600.000   -2.208E+02    4.7701747E+06   -4.7890323E+04   -4.2826504E+04    4.7701747E+06    4.2826461E+04    4.7752385E+06
    2.10   600.000   -2.216E+02    4.9017311E+06   -4.8580851E+04   -4.3413644E+04    4.9017311E+06    4.3413603E+04    4.9068983E+06
    2.11   600.000   -2.224E+02    5.0375969E+06   -4.9143276E+04   -4.3854674E+04    5.0375969E+06    4.3854635E+04    5.0428855E+06
    2.12   600.000   -2.232E+02    5.1755645E+06   -4.9596567E+04   -4.4167307E+04    5.1755645E+06    4.4167270E+04    5.1809938E+06
    2.13   600.000   -2.240E+02    5.3133874E+06   -4.9968950E+04   -4.4379936E+04    5.3133874E+06    4.4379900E+04    5.3189764E+06
    2.14   600.000   -2.248E+02    5.4489701E+06   -5.0292931E+04   -4.4526759E+04    5.4489701E+06    4.4526725E+04    5.4547362E+06
    2.15   600.000   -2.256E+02    5.5805340E+06   -5.0599653E+04   -4.4641989E+04    5.5805340E+06    4.4641957E+04    5.5864916E+06
    2.16   600.000   -2.264E+02    5.7067405E+06   -5.0914223E+04   -4.4754778E+04    5.7067405E+06    4.4754748E+04    5.7128999E+06
    2.17   600.000   -2.272E+02    5.8267585E+06   -5.1253306E+04   -4.4886239E+04    5.8267584E+06    4.4886211E+04    5.8331255E+06
    2.18   600.000   -2.279E+02    5.9402744E+06   -5.1625424E+04   -4.5049145E+04    5.9402743E+06    4.5049119E+04    5.9468506E+06
    2.19   600.000   -2.287E+02    6.0474523E+06   -5.2033393E+04   -4.5249881E+04    6.0474523E+06    4.5249856E+04    6.0542358E+06
    2.20   600.000   -2.295E+02    6.1488602E+06   -5.2477579E+04   -4.5491436E+04    6.1488602E+06    4.5491412E+04    6.1558463E+06
    2.21   600.000   -2.302E+02    6.2453781E+06   -5.2958499E+04   -4.5775991E+04    6.2453780E+06    4.5775969E+04    6.2525605E+06
    2.22   600.000   -2.310E+02    6.3381019E+06   -5.3477761E+04   -4.6106047E+04    6.3381019E+06    4.6106026E+04    6.3454736E+06
    2.23   600.000   -2.317E+02    6.4282486E+06   -5.4037164E+04   -4.6483834E+04    6.4282486E+06    4.6483815E+04    6.4358019E+06
    2.24   600.000   -2.325E+02    6.5170599E+06   -5.4636697E+04   -4.6909614E+04    6.5170599E+06    4.6909596E+04    6.5247870E+06
    2.25   600.000   -2.332E+02    6.6057021E+06   -5.5272614E+04   -4.7379990E+04    6.6057020E+06    4.7379972E+04    6.6135947E+06
    2.26   600.000   -2.339E+02    6.6951596E+06   -5.5936715E+04   -4.7887283E+04    6.6951596E+06    4.7887266E+04    6.7032090E+06
    2.27   600.000   -2.346E+02    6.7861285E+06   -5.6617316E+04   -4.8420522E+04    6.7861284E+06    4.8420506E+04    6.7943252E+06
    2.28   600.000   -2.354E+02    6.8789198E+06   -5.7301747E+04   -4.8967866E+04    6.8789198E+06    4.8967851E+04    6.8872537E+06
    2.29   600.000   -2.361E+02    6.9733903E+06   -5.7979572E+04   -4.9519750E+04    6.9733902E+06    4.9519736E+04    6.9818500E+06
    2.30   600.000   -2.368E+02    7.0689115E+06   -5.8645567E+04   -5.0071778E+04    7.0689114E+06    5.0071765E+04    7.0774852E+06
    2.31   600.000   -2.375E+02    7.1643888E+06   -5.9301520E+04   -5.0626430E+04    7.1643887E+06    5.0626418E+04    7.1730638E+06
    2.32   600.000   -2.382E+02    7.2583284E+06   -5.9956143E+04   -5.1192865E+04    7.2583283E+06    5.1192854E+04    7.2670916E+06
    2.33   600.000   -2.390E+02    7.3489442E+06   -6.0622758E+04   -5.1784441E+04    7.3489441E+06    5.1784431E+04    7.3577824E+06
    2.34   600.000   -2.397E+02    7.4342891E+06   -6.1314883E+04   -5.2414156E+04    7.4342890E+06    5.2414148E+04    7.4431897E+06
    2.35   600.000   -2.404E+02    7.5123932E+06   -6.2040563E+04   -5.3088875E+04    7.5123931E+06    5.3088868E+04    7.5213448E+06
    2.36   600.000   -2.411E+02    7.5813962E+06   -6.2797020E+04   -5.3804012E+04    7.5813961E+06    5.3804007E+04    7.5903891E+06
    2.37   600.000   -2.418E+02    7.6396714E+06   -6.3567717E+04   -5.4540760E+04    7.6396713E+06    5.4540756E+04    7.6486982E+06
    2.38   600.000   -2.426E+02    7.6859466E+06   -6.4323758E+04   -5.5267764E+04    7.6859465E+06    5.5267762E+04    7.6950025E+06
    2.39   600.000   -2.433E+02    7.7194330E+06   -6.5030446E+04   -5.5948006E+04    7.7194329E+06    5.5948006E+04    7.7285153E+06
    2.40   600.000   -2.440E+02    7.7399644E+06   -6.5658012E+04   -5.6549806E+04    7.7399642E+06    5.6549808E+04    7.7490724E+06
    2.41   600.000   -2.448E+02    7.7481340E+06   -6.6193446E+04   -5.7058866E+04    7.7481339E+06    5.7058869E+04    7.7572684E+06
    2.42   600.000   -2.455E+02    7.7453986E+06   -6.6649158E+04   -5.7487082E+04    7.7453984E+06    5.7487087E+04    7.7545605E+06
    2.43   600.000   -2.462E+02    7.7341046E+06   -6.7064508E+04   -5.7874202E+04    7.7341045E+06    5.7874209E+04    7.7432948E+06
    2.44   600.000   -2.469E+02    7.7173983E+06   -6.7498386E+04   -5.8280545E+04    7.7173982E+06    5.8280553E+04    7.7266161E+06
    2.45   600.000   -2.476E+02    7.6989992E+06   -6.8014294E+04   -5.8772193E+04    7.6989991E+06    5.8772203E+04    7.7082412E+06
    2.46   600.000   -2.483E+02    7.6828534E+06   -6.8662431E+04   -5.9403133E+04    7.6828533E+06    5.9403145E+04    7.6921126E+06
    2.47   600.000   -2.490E+02    7.6727194E+06   -6.9464793E+04   -6.0200238E+04    7.6727193E+06    6.0200251E+04    7.6819839E+06
    2.48   600.000   -2.497E+02    7.6717621E+06   -7.0408447E+04   -6.1156218E+04    7.6717621E+06    6.1156233E+04    7.6810143E+06
    2.49   600.000   -2.504E+02    7.6822340E+06   -7.1449271E+04   -6.2232810E+04    7.6822340E+06    6.2232828E+04    7.6914505E+06
    2.50   600.000   -2.511E+02    7.7053002E+06   -7.2524685E+04   -6.3372771E+04    7.7053002E+06    6.3372790E+04    7.7144521E+06
    2.51   600.000   -2.518E+02    7.7410277E+06   -7.3570689E+04   -6.4516085E+04    7.7410277E+06    6.4516107E+04    7.7500823E+06
    2.52   600.000   -2.525E+02    7.7885198E+06   -7.4537151E+04   -6.5614497E+04    7.7885198E+06    6.5614521E+04    7.7974424E+06
    2.53   600.000   -2.531E+02    7.8461453E+06   -7.5396103E+04   -6.6639231E+04    7.8461453E+06    6.6639257E+04    7.8549022E+06
    2.54   600.000   -2.538E+02    7.9118018E+06   -7.6140424E+04   -6.7579421E+04    7.9118018E+06    6.7579450E+04    7.9203628E+06
    2.55   600.000   -2.545E+02    7.9831557E+06   -7.6773717E+04   -6.8432107E+04    7.9831558E+06    6.8432138E+04    7.9914974E+06
    2.56   600.000   -2.551E+02    8.0578229E+06   -7.7295294E+04   -6.9187675E+04    8.0578229E+06    6.9187709E+04    8.0659305E+06
    2.57   600.000   -2.558E+02    8.1334756E+06   -7.7685879E+04   -6.9816322E+04    8.1334756E+06    6.9816358E+04    8.1413452E+06
    2.58   600.000   -2.564E+02    8.2078881E+06   -7.7899497E+04   -7.0260884E+04    8.2078881E+06    7.0260924E+04    8.2155267E+06
    2.59   600.000   -2.571E+02    8.2789435E+06   -7.7864837E+04   -7.0439220E+04    8.2789435E+06    7.0439261E+04    8.2863691E+06
    2.60   600.000   -2.577E+02    8.3446292E+06   -7.7495964E+04   -7.0255908E+04    8.3446292E+06    7.0255952E+04    8.3518693E+06
    2.61   600.000   -2.583E+02    8.4030397E+06   -7.6708727E+04   -6.9619515E+04    8.4030397E+06    6.9619561E+04    8.4101289E+06
    2.62   600.000   -2.589E+02    8.4523912E+06   -7.5436945E+04   -6.8459422E+04    8.4523912E+06    6.8459469E+04    8.4593687E+06
    2.63   600.000   -2.596E+02    8.4910416E+06   -7.3642402E+04   -6.6736223E+04    8.4910416E+06    6.6736270E+04    8.4979478E+06
    2.64   600.000   -2.602E+02    8.5175046E+06   -7.1314973E+04   -6.4441957E+04    8.5175046E+06    6.4442004E+04    8.5243776E+06
    2.65   600.000   -2.607E+02    8.5304524E+06   -6.8462763E+04   -6.1590105E+04    8.5304524E+06    6.1590150E+04    8.5373251E+06
    2.66   600.000   -2.613E+02    8.5287113E+06   -6.5095837E+04   -5.8198886E+04    8.5287113E+06    5.8198929E+04    8.5356083E+06
    2.67   600.000   -2.619E+02    8.5112643E+06   -6.1209357E+04   -5.4273705E+04    8.5112643E+06    5.4273745E+04    8.5181999E+06
    2.68   600.000   -2.625E+02    8.4772786E+06   -5.6772337E+04   -4.9794899E+04    8.4772786E+06    4.9794935E+04    8.4842560E+06
    2.69   600.000   -2.630E+02    8.4261697E+06   -5.1726660E+04   -4.4715477E+04    8.4261696E+06    4.4715508E+04    8.4331808E+06
    2.70   600.000   -2.635E+02    8.3576992E+06   -4.5998146E+04   -3.8970681E+04    8.3576991E+06    3.8970707E+04    8.3647266E+06
    2.71   600.000   -2.640E+02    8.2720936E+06   -3.9518084E+04   -3.2497959E+04    8.2720935E+06    3.2497979E+04    8.2791136E+06
    2.72   600.000   -2.645E+02    8.1701564E+06   -3.2250584E+04   -2.5262988E+04    8.1701564E+06    2.5263002E+04    8.1771440E+06
    2.73   600.000   -2.650E+02    8.0533468E+06   -2.4219455E+04   -1.7285722E+04    8.0533468E+06    1.7285729E+04    8.0602805E+06
    2.74   600.000   -2.655E+02    7.9237999E+06   -1.5528443E+04   -8.6605324E+03    7.9237998E+06    8.6605327E+03    7.9306677E+06
    2.75   600.000   -2.660E+02    7.7842772E+06   -6.3706281E+03    4.3367870E+02    7.7842772E+06   -4.3368554E+02    7.7910815E+06
    2.76   600.000   -2.664E+02    7.6380505E+06    2.9743001E+03    9.7348199E+03    7.6380504E+06   -9.7348339E+03    7.6448109E+06
    2.77   600.000   -2.669E+02    7.4887304E+06    1.2153713E+04    1.8909468E+04    7.4887304E+06   -1.8909489E+04    7.4954861E+06
    2.78   600.000   -2.673E+02    7.3400650E+06    2.0764303E+04    2.7573219E+04    7.3400650E+06   -2.7573247E+04    7.3468739E+06
    2.79   600.000   -2.678E+02    7.1957268E+06    2.8380812E+04    3.5317693E+04    7.1957268E+06   -3.5317727E+04    7.2026636E+06
    2.80   600.000   -2.682E+02    7.0591101E+06    3.4589827E+04    4.1742954E+04    7.0591101E+06   -4.1742995E+04    7.0662632E+06
    2.81   600.000   -2.686E+02    6.9331506E+06    3.9027253E+04    4.6494038E+04    6.9331506E+06   -4.6494086E+04    6.9406173E+06
    2.82   600.000   -2.690E+02    6.8201736E+06    4.1416900E+04    4.9298976E+04    6.8201735E+06   -4.9299030E+04    6.8280556E+06
    2.83   600.000   -2.694E+02    6.7217719E+06    4.1605556E+04    5.0003632E+04    6.7217719E+06   -5.0003693E+04    6.7301699E+06
    2.84   600.000   -2.698E+02    6.6387100E+06    3.9588384E+04    4.8597079E+04    6.6387100E+06   -4.8597145E+04    6.6477187E+06
    2.85   600.000   -2.702E+02    6.5708523E+06    3.5518496E+04    4.5221299E+04    6.5708523E+06   -4.5221371E+04    6.5805551E+06
    2.86   600.000   -2.706E+02    6.5171213E+06    2.9696926E+04    4.0161371E+04    6.5171213E+06   -4.0161449E+04    6.5275857E+06
    2.87   600.000   -2.710E+02    6.4754999E+06    2.2543165E+04    3.3816309E+04    6.4754999E+06   -3.3816391E+04    6.4867730E+06
    2.88   600.000   -2.714E+02    6.4430996E+06    1.4550719E+04    2.6655056E+04    6.4430995E+06   -2.6655143E+04    6.4552039E+06
    2.89   600.000   -2.718E+02    6.4163176E+06    6.2352203E+03    1.9165299E+04    6.4163175E+06   -1.9165390E+04    6.4292476E+06
    2.90   600.000   -2.722E+02    6.3910960E+06   -1.9164760E+03    1.1803693E+04    6.3910959E+06   -1.1803787E+04    6.4048161E+06
    2.91   600.000   -2.726E+02    6.3632774E+06   -9.4889371E+03    4.9548505E+03    6.3632773E+06   -4.9549468E+03    6.3777211E+06
    2.92   600.000   -2.730E+02    6.3290251E+06   -1.6167861E+04   -1.0962068E+03    6.3290250E+06    1.0961094E+03    6.3440966E+06
    2.93   600.000   -2.734E+02    6.2852551E+06   -2.1755039E+04   -6.1765876E+03    6.2852550E+06    6.1764903E+03    6.3008335E+06
    2.94   600.000   -2.738E+02    6.2300078E+06   -2.6169236E+04   -1.0224123E+04    6.2300077E+06    1.0224027E+04    6.2459528E+06
    2.95   600.000   -2.742E+02    6.1626901E+06   -2.9435308E+04   -1.3274845E+04    6.1626900E+06    1.3274751E+04    6.1788505E+06
    2.96   600.000   -2.746E+02    6.0841363E+06   -3.1664757E+04   -1.5442950E+04    6.0841362E+06    1.5442859E+04    6.1003580E+06
    2.97   600.000   -2.750E+02    5.9964670E+06   -3.3031120E+04   -1.6896763E+04    5.9964669E+06    1.6896678E+04    6.0126013E+06
    2.98   600.000   -2.754E+02    5.9027697E+06   -3.3743325E+04   -1.7833630E+04    5.9027696E+06    1.7833549E+04    5.9186793E+06
    2.99   600.000   -2.758E+02    5.8066589E+06   -3.4019531E+04   -1.8455777E+04    5.8066588E+06    1.8455702E+04    5.8222225E+06
    3.00   600.000   -2.762E+02    5.7118000E+06   -3.4063336E+04   -1.8948514E+04    5.7117999E+06    1.8948445E+04    5.7269147E+06
    3.01   600.000   -2.766E+02    5.6214838E+06   -3.4043785E+04   -1.9461795E+04    5.6214838E+06    1.9461732E+04    5.6360658E+06
    3.02   600.000   -2.769E+02    5.5383225E+06   -3.4080468E+04   -2.0096292E+04    5.5383224E+06    2.0096235E+04    5.5523066E+06
    3.03   600.000   -2.773E+02    5.4641059E+06   -3.4235125E+04   -2.0895456E+04    5.4641058E+06    2.0895405E+04    5.4774455E+06
    3.04   600.000   -2.777E+02    5.3998206E+06   -3.4511203E+04   -2.1845184E+04    5.3998206E+06    2.1845139E+04    5.4124866E+06
    3.05   600.000   -2.781E+02    5.3457968E+06   -3.4862282E+04   -2.2882172E+04    5.3457967E+06    2.2882134E+04    5.3577768E+06
    3.06   600.000   -2.785E+02    5.3019290E+06   -3.5209004E+04   -2.3910721E+04    5.3019289E+06    2.3910689E+04    5.3132272E+06
    3.07   600.000   -2.789E+02    5.2679137E+06   -3.5462178E+04   -2.4825728E+04    5.2679136E+06    2.4825702E+04    5.2785500E+06
    3.08   600.000   -2.793E+02    5.2434580E+06   -3.5547730E+04   -2.5537608E+04    5.2434579E+06    2.5537589E+04    5.2534681E+06
    3.09   600.000   -2.797E+02    5.2284370E+06   -3.5428002E+04   -2.5993694E+04    5.2284369E+06    2.5993680E+04    5.2378712E+06
    3.10   600.000   -2.801E+02    5.2229951E+06   -3.5114261E+04   -2.6191014E+04    5.2229950E+06    2.6191006E+04    5.2319183E+06
    3.11   600.000   -2.805E+02    5.2275980E+06   -3.4667375E+04   -2.6177387E+04    5.2275979E+06    2.6177384E+04    5.2360879E+06
    3.12   600.000   -2.809E+02    5.2430372E+06   -3.4186860E+04   -2.6040950E+04    5.2430371E+06    2.6040953E+04    5.2511830E+06
    3.13   600.000   -2.813E+02    5.2703834E+06   -3.3791791E+04   -2.5891528E+04    5.2703833E+06    2.5891536E+04    5.2782836E+06
    3.14   600.000   -2.817E+02    5.3108795E+06   -3.3599167E+04   -2.5839339E+04    5.3108794E+06    2.5839351E+04    5.3186393E+06
    3.15   600.000   -2.822E+02    5.3657673E+06   -3.3705493E+04   -2.5976765E+04    5.3657673E+06    2.5976782E+04    5.3734960E+06
    3.16   600.000   -2.826E+02    5.4360561E+06   -3.4175525E+04   -2.6367184E+04    5.4360561E+06    2.6367205E+04    5.4438644E+06
    3.17   600.000   -2.830E+02    5.5222607E+06   -3.5039336E+04   -2.7042083E+04    5.5222606E+06    2.7042108E+04    5.5302579E+06
    3.18   600.000   -2.834E+02    5.6241491E+06   -3.6296113E+04   -2.8004980E+04    5.6241491E+06    2.8005008E+04    5.6324402E+06
    3.19   600.000   -2.838E+02    5.7405471E+06   -3.7921505E+04   -2.9239039E+04    5.7405471E+06    2.9239070E+04    5.7492295E+06
    3.20   600.000   -2.842E+02    5.8692339E+06   -3.9875114E+04   -3.0715010E+04    5.8692339E+06    3.0715044E+04    5.8783940E+06
    3.21   600.000   -2.846E+02    6.0069482E+06   -4.2105735E+04   -3.2397023E+04    6.0069482E+06    3.2397059E+04    6.0166569E+06
    3.22   600.000   -2.851E+02    6.1494978E+06   -4.4553416E+04   -3.4245144E+04    6.1494978E+06    3.4245183E+04    6.1598061E+06
    3.23   600.000   -2.855E+02    6.2919477E+06   -4.7148928E+04   -3.6215038E+04    6.2919477E+06    3.6215079E+04    6.3028816E+06
    3.24   600.000   -2.860E+02    6.4288561E+06   -4.9812253E+04   -3.8256010E+04    6.4288562E+06    3.8256053E+04    6.4404124E+06
    3.25   600.000   -2.864E+02    6.5545280E+06   -5.2452058E+04   -4.0309185E+04    6.5545281E+06    4.0309230E+04    6.5666709E+06
    3.26   600.000   -2.869E+02    6.6632734E+06   -5.4967873E+04   -4.2307425E+04    6.6632735E+06    4.2307472E+04    6.6759339E+06
    3.27   600.000   -2.873E+02    6.7496705E+06   -5.7255757E+04   -4.4177953E+04    6.7496705E+06    4.4178001E+04    6.7627483E+06
    3.28   600.000   -2.878E+02    6.8088425E+06   -5.9217019E+04   -4.5847694E+04    6.8088425E+06    4.5847743E+04    6.8222119E+06
    3.29   600.000   -2.883E+02    6.8367528E+06   -6.0768417E+04   -4.7250427E+04    6.8367529E+06    4.7250477E+04    6.8502709E+06
    3.30   600.000   -2.887E+02    6.8305067E+06   -6.1851699E+04   -4.8334250E+04    6.8305068E+06    4.8334300E+04    6.8440242E+06
    3.31   600.000   -2.892E+02    6.7886290E+06   -6.2440587E+04   -4.9067925E+04    6.7886291E+06    4.9067976E+04    6.8020018E+06
    3.32   600.000   -2.897E+02    6.7112759E+06   -6.2544153E+04   -4.9445144E+04    6.7112760E+06    4.9445194E+04    6.7243750E+06
    3.33   600.000   -2.902E+02    6.6003367E+06   -6.2206520E+04   -4.9486379E+04    6.6003368E+06    4.9486428E+04    6.6130569E+06
    3.34   600.000   -2.907E+02    6.4593946E+06   -6.1503546E+04   -4.9238450E+04    6.4593946E+06    4.9238497E+04    6.4716597E+06
    3.35   600.000   -2.912E+02    6.2935352E+06   -6.0537262E+04   -4.8771998E+04    6.2935353E+06    4.8772044E+04    6.3053006E+06
    3.36   600.000   -2.917E+02    6.1090125E+06   -5.9428635E+04   -4.8176967E+04    6.1090125E+06    4.8177011E+04    6.1202642E+06
    3.37   600.000   -2.922E+02    5.9128025E+06   -5.8308802E+04   -4.7555955E+04    5.9128026E+06    4.7555996E+04    5.9235555E+06
    3.38   600.000   -2.927E+02    5.7120966E+06   -5.7308832E+04   -4.7015392E+04    5.7120967E+06    4.7015430E+04    5.7223901E+06
    3.39   600.000   -2.932E+02    5.5137917E+06   -5.6548233E+04   -4.6654835E+04    5.5137918E+06    4.6654869E+04    5.5236852E+06
    3.40   600.000   -2.937E+02    5.3240422E+06   -5.6122977E+04   -4.6555292E+04    5.3240423E+06    4.6555324E+04    5.3336100E+06
    3.41   600.000   -2.942E+02    5.1479222E+06   -5.6094401E+04   -4.6768146E+04    5.1479223E+06    4.6768174E+04    5.1572485E+06
    3.42   600.000   -2.947E+02    4.9892267E+06   -5.6480603E+04   -4.7306495E+04    4.9892267E+06    4.7306520E+04    4.9984009E+06
    3.43   600.000   -2.952E+02    4.8504131E+06   -5.7251773E+04   -4.8140532E+04    4.8504132E+06    4.8140553E+04    4.8595244E+06
    3.44   600.000   -2.957E+02    4.7326632E+06   -5.8330202E+04   -4.9197755E+04    4.7326632E+06    4.9197772E+04    4.7417956E+06
    3.45   600.000   -2.962E+02    4.6360329E+06   -5.9594899E+04   -5.0367882E+04    4.6360329E+06    5.0367896E+04    4.6452599E+06
    3.46   600.000   -2.967E+02    4.5596589E+06   -6.0890129E+04   -5.1511584E+04    4.5596589E+06    5.1511595E+04    4.5690375E+06
    3.47   600.000   -2.972E+02    4.5019949E+06   -6.2037080E+04   -5.2471922E+04    4.5019949E+06    5.2471930E+04    4.5115601E+06
    3.48   600.000   -2.978E+02    4.4610575E+06   -6.2848106E+04   -5.3087678E+04    4.4610575E+06    5.3087683E+04    4.4708179E+06
    3.49   600.000   -2.983E+02    4.4346641E+06   -6.3143261E+04   -5.3208076E+04    4.4346641E+06    5.3208078E+04    4.4445993E+06
    3.50   600.000   -2.988E+02    4.4206440E+06   -6.2768555E+04   -5.2708407E+04    4.4206440E+06    5.2708406E+04    4.4307042E+06
    3.51   600.000   -2.994E+02    4.4170018E+06   -6.1614442E+04   -5.1505372E+04    4.4170018E+06    5.1505370E+04    4.4271109E+06
    3.52   600.000   -2.999E+02    4.4220196E+06   -5.9631760E+04   -4.9569938E+04    4.4220196E+06    4.9569935E+04    4.4320814E+06
    3.53   600.000   -3.004E+02    4.4342934E+06   -5.6841579E+04   -4.6934805E+04    4.4342934E+06    4.6934799E+04    4.4442002E+06
    3.54   600.000   -3.010E+02    4.4527138E+06   -5.3335831E+04   -4.3693860E+04    4.4527138E+06    4.3693854E+04    4.4623558E+06
    3.55   600.000   -3.015E+02    4.4764149E+06   -4.9267369E+04   -3.9992516E+04    4.4764149E+06    3.9992509E+04    4.4856897E+06
    3.56   600.000   -3.021E+02    4.5047182E+06   -4.4830696E+04   -3.6009972E+04    4.5047182E+06    3.6009966E+04    4.5135389E+06
    3.57   600.000   -3.026E+02    4.5370953E+06   -4.0236918E+04   -3.1936526E+04    4.5370953E+06    3.1936521E+04    4.5453957E+06
    3.58   600.000   -3.032E+02    4.5731563E+06   -3.5687672E+04   -2.7950120E+04    4.5731563E+06    2.7950115E+04    4.5808938E+06
    3.59   600.000   -3.038E+02    4.6126575E+06   -3.1352590E+04   -2.4196181E+04    4.6126575E+06    2.4196178E+04    4.6198139E+06
    3.60   600.000   -3.043E+02    4.6555067E+06   -2.7353555E+04   -2.0773737E+04    4.6555067E+06    2.0773736E+04    4.6620865E+06
    3.61   600.000   -3.049E+02    4.7017398E+06   -2.3757299E+04   -1.7729255E+04    4.7017398E+06    1.7729257E+04    4.7077678E+06
    3.62   600.000   -3.054E+02    4.7514511E+06   -2.0576378E+04   -1.5058306E+04    4.7514511E+06    1.5058311E+04    4.7569692E+06
    3.63   600.000   -3.060E+02    4.8046713E+06   -1.7777395E+04   -1.2714053E+04    4.8046713E+06    1.2714060E+04    4.8097347E+06
    3.64   600.000   -3.065E+02    4.8612109E+06   -1.5294608E+04   -1.0620855E+04    4.8612109E+06    1.0620866E+04    4.8658846E+06
    3.65   600.000   -3.071E+02    4.9205031E+06   -1.3046606E+04   -8.6907813E+03    4.9205031E+06    8.6907946E+03    4.9248589E+06
    3.66   600.000   -3.076E+02    4.9814941E+06   -1.0953461E+04   -6.8405473E+03    4.9814941E+06    6.8405634E+03    4.9856070E+06
    3.67   600.000   -3.081E+02    5.0426250E+06   -8.9518278E+03   -5.0064167E+03    5.0426250E+06    5.0064354E+03    5.0465704E+06
    3.68   600.000   -3.087E+02    5.1019355E+06   -7.0057564E+03   -3.1548578E+03    5.1019355E+06    3.1548788E+03    5.1057864E+06
    3.69   600.000   -3.092E+02    5.1572891E+06   -5.1116205E+03   -1.2873788E+03    5.1572891E+06    1.2874015E+03    5.1611133E+06
    3.70   600.000   -3.097E+02    5.2066834E+06   -3.2965331E+03    5.6113053E+02    5.2066834E+06   -5.6110644E+02    5.2105410E+06
    3.71   600.000   -3.102E+02    5.2485837E+06   -1.6108058E+03    2.3300577E+03    5.2485837E+06   -2.3300327E+03    5.2525245E+06
    3.72   600.000   -3.107E+02    5.2822002E+06   -1.1626031E+02    3.9450193E+03    5.2822002E+06   -3.9449937E+03    5.2862615E+06
    3.73   600.000   -3.111E+02    5.3076425E+06    1.1268449E+03    5.3314457E+03    5.3076425E+06   -5.3314198E+03    5.3118471E+06
    3.74   600.000   -3.116E+02    5.3259101E+06    2.0712117E+03    6.4268155E+03    5.3259100E+06   -6.4267895E+03    5.3302656E+06
    3.75   600.000   -3.121E+02    5.3387202E+06    2.6897251E+03    7.1890504E+03    5.3387202E+06   -7.1890243E+03    5.3432195E+06
    3.76   600.000   -3.125E+02    5.3482098E+06    2.9772998E+03    7.5997852E+03    5.3482098E+06   -7.5997589E+03    5.3528323E+06
    3.77   600.000   -3.130E+02    5.3565745E+06    2.9477687E+03    7.6627383E+03    5.3565745E+06   -7.6627118E+03    5.3612895E+06
    3.78   600.000   -3.134E+02    5.3657134E+06    2.6276065E+03    7.3987213E+03    5.3657134E+06   -7.3986945E+03    5.3704845E+06
    3.79   600.000   -3.138E+02    5.3769439E+06    2.0489729E+03    6.8395054E+03    5.3769440E+06   -6.8394780E+03    5.3817345E+06
    3.80   600.000   -3.142E+02    5.3908291E+06    1.2443537E+03    6.0226377E+03    5.3908291E+06   -6.0226098E+03    5.3956074E+06
    3.81   600.000   -3.146E+02    5.4071404E+06    2.4407656E+02    4.9884350E+03    5.4071405E+06   -4.9884066E+03    5.4118848E+06
    3.82   600.000   -3.150E+02    5.4249580E+06   -9.2346929E+02    3.7790897E+03    5.4249580E+06   -3.7790607E+03    5.4296606E+06
    3.83   600.000   -3.154E+02    5.4428860E+06   -2.2304368E+03    2.4385836E+03    5.4428861E+06   -2.4385542E+03    5.4475552E+06
    3.84   600.000   -3.158E+02    5.4593446E+06   -3.6491566E+03    1.0114743E+03    5.4593447E+06   -1.0114447E+03    5.4640053E+06
    3.85   600.000   -3.162E+02    5.4728819E+06   -5.1546031E+03   -4.6100084E+02    5.4728820E+06    4.6103041E+02    5.4775756E+06
    3.86   600.000   -3.165E+02    5.4824507E+06   -6.7300403E+03   -1.9476897E+03    5.4824508E+06    1.9477190E+03    5.4872331E+06
    3.87   600.000   -3.169E+02    5.4876008E+06   -8.3743298E+03   -3.4355669E+03    5.4876009E+06    3.4355959E+03    5.4925397E+06
    3.88   600.000   -3.172E+02    5.4885628E+06   -1.0108049E+04   -4.9362009E+03    5.4885630E+06    4.9362293E+03    5.4937348E+06
    3.89   600.000   -3.176E+02    5.4862243E+06   -1.1975531E+04   -6.4877923E+03    5.4862244E+06    6.4878200E+03    5.4917121E+06
    3.90   600.000   -3.179E+02    5.4820189E+06   -1.4041289E+04   -8.1513069E+03    5.4820190E+06    8.1513339E+03    5.4879090E+06
    3.91   600.000   -3.183E+02    5.4777604E+06   -1.6381472E+04   -1.0001384E+04    5.4777605E+06    1.0001410E+04    5.4841406E+06
    3.92   600.000   -3.186E+02    5.4754494E+06   -1.9072897E+04   -1.2114655E+04    5.4754495E+06    1.2114680E+04    5.4824077E+06
    3.93   600.000   -3.189E+02    5.4770754E+06   -2.2183082E+04   -1.4558981E+04    5.4770755E+06    1.4559007E+04    5.4846996E+06
    3.94   600.000   -3.192E+02    5.4844281E+06   -2.5764073E+04   -1.7386579E+04    5.4844281E+06    1.7386604E+04    5.4928056E+06
    3.95   600.000   -3.196E+02    5.4989246E+06   -2.9851100E+04   -2.0632249E+04    5.4989246E+06    2.0632275E+04    5.5081435E+06
    3.96   600.000   -3.199E+02    5.5214609E+06   -3.4464985E+04   -2.4315854E+04    5.5214609E+06    2.4315880E+04    5.5316101E+06
    3.97   600.000   -3.202E+02    5.5522895E+06   -3.9615590E+04   -2.8446442E+04    5.5522895E+06    2.8446467E+04    5.5634586E+06
    3.98   600.000   -3.205E+02    5.5909291E+06   -4.5303088E+04   -3.3024826E+04    5.5909291E+06    3.3024852E+04    5.6032074E+06
    3.99   600.000   -3.207E+02    5.6361111E+06   -5.1514677E+04   -3.8042043E+04    5.6361111E+06    3.8042069E+04    5.6495838E+06
    4.00   600.000   -3.210E+02    5.6857667E+06   -5.8216148E+04   -4.3472783E+04    5.6857666E+06    4.3472808E+04    5.7005100E+06
    4.01   600.000   -3.213E+02    5.7370603E+06   -6.5340171E+04   -4.9265173E+04    5.7370602E+06    4.9265198E+04    5.7531352E+06
    4.02   600.000   -3.216E+02    5.7864756E+06   -7.2775232E+04   -5.5330381E+04    5.7864755E+06    5.5330406E+04    5.8039204E+06
    4.03   600.000   -3.219E+02    5.8299580E+06   -8.0360219E+04   -6.1536616E+04    5.8299579E+06    6.1536640E+04    5.8487815E+06
    4.04   600.000   -3.221E+02    5.8631171E+06   -8.7888881E+04   -6.7711565E+04    5.8631170E+06    6.7711588E+04    5.8832943E+06
    4.05   600.000   -3.224E+02    5.8814882E+06   -9.5125672E+04   -7.3654945E+04    5.8814881E+06    7.3654966E+04    5.9029589E+06
    4.06   600.000   -3.227E+02    5.8808425E+06   -1.0183071E+05   -7.9159434E+04    5.8808424E+06    7.9159453E+04    5.9035137E+06
    4.07   600.000   -3.229E+02    5.8575275E+06   -1.0778811E+05   -8.4035086E+04    5.8575274E+06    8.4035102E+04    5.8812804E+06
    4.08   600.000   -3.232E+02    5.8088073E+06   -1.1283026E+05   -8.8130878E+04    5.8088072E+06    8.8130893E+04    5.8335066E+06
    4.09   600.000   -3.234E+02    5.7331606E+06   -1.1685214E+05   -9.1347939E+04    5.7331606E+06    9.1347952E+04    5.7586648E+06
    4.10   600.000   -3.237E+02    5.6304932E+06   -1.1981251E+05   -9.3641913E+04    5.6304931E+06    9.3641924E+04    5.6566637E+06
    4.11   600.000   -3.239E+02    5.5022231E+06   -1.2172408E+05   -9.5015618E+04    5.5022230E+06    9.5015627E+04    5.5289315E+06
    4.12   600.000   -3.242E+02    5.3512178E+06   -1.2263713E+05   -9.5506029E+04    5.3512177E+06    9.5506036E+04    5.3783488E+06
    4.13   600.000   -3.245E+02    5.1815834E+06   -1.2262325E+05   -9.5170719E+04    5.1815833E+06    9.5170725E+04    5.2090359E+06
    4.14   600.000   -3.247E+02    4.9983357E+06   -1.2176377E+05   -9.4077871E+04    4.9983356E+06    9.4077876E+04    5.0260215E+06
    4.15   600.000   -3.250E+02    4.8070005E+06   -1.2014478E+05   -9.2301541E+04    4.8070005E+06    9.2301544E+04    4.8348437E+06
    4.16   600.000   -3.252E+02    4.6132012E+06   -1.1785738E+05   -8.9921229E+04    4.6132011E+06    8.9921231E+04    4.6411373E+06
    4.17   600.000   -3.255E+02    4.4222832E+06   -1.1499947E+05   -8.7023071E+04    4.4222831E+06    8.7023072E+04    4.4502595E+06
    4.18   600.000   -3.257E+02    4.2390140E+06   -1.1167544E+05   -8.3699829E+04    4.2390139E+06    8.3699829E+04    4.2669895E+06
    4.19   600.000   -3.260E+02    4.0673752E+06   -1.0799192E+05   -8.0048088E+04    4.0673752E+06    8.0048087E+04    4.0953190E+06
    4.20   600.000   -3.263E+02    3.9104486E+06   -1.0405019E+05   -7.6162931E+04    3.9104486E+06    7.6162929E+04    3.9383358E+06
    4.21   600.000   -3.265E+02    3.7703837E+06   -9.9937782E+04   -7.2131901E+04    3.7703837E+06    7.2131896E+04    3.7981896E+06
    4.22   600.000   -3.268E+02    3.6484311E+06   -9.5722708E+04   -6.8030504E+04    3.6484311E+06    6.8030498E+04    3.6761233E+06
    4.23   600.000   -3.271E+02    3.5450234E+06   -9.1452466E+04   -6.3920866E+04    3.5450233E+06    6.3920859E+04    3.5725549E+06
    4.24   600.000   -3.273E+02    3.4598934E+06   -8.7158355E+04   -5.9853717E+04    3.4598933E+06    5.9853708E+04    3.4871980E+06
    4.25   600.000   -3.276E+02    3.3922215E+06   -8.2863464E+04   -5.5872501E+04    3.3922214E+06    5.5872491E+04    3.4192124E+06
    4.26   600.000   -3.278E+02    3.3408049E+06   -7.8591588E+04   -5.2017682E+04    3.3408049E+06    5.2017670E+04    3.3673788E+06
    4.27   600.000   -3.281E+02    3.3042394E+06   -7.4374343E+04   -4.8329472E+04    3.3042394E+06    4.8329459E+04    3.3302843E+06
    4.28   600.000   -3.284E+02    3.2810970E+06   -7.0254789E+04   -4.4848266E+04    3.2810969E+06    4.4848251E+04    3.3065034E+06
    4.29   600.000   -3.287E+02    3.2700781E+06   -6.6287369E+04   -4.1613230E+04    3.2700780E+06    4.1613214E+04    3.2947522E+06
    4.30   600.000   -3.289E+02    3.2701189E+06   -6.2535208E+04   -3.8660358E+04    3.2701189E+06    3.8660340E+04    3.2939937E+06
    4.31   600.000   -3.292E+02    3.2804375E+06   -5.9066283E+04   -3.6021279E+04    3.2804374E+06    3.6021259E+04    3.3034824E+06
    4.32   600.000   -3.295E+02    3.3005161E+06   -5.5949671E+04   -3.3723373E+04    3.3005160E+06    3.3723352E+04    3.3227423E+06
    4.33   600.000   -3.298E+02    3.3300283E+06   -5.3252364E+04   -3.1790806E+04    3.3300282E+06    3.1790784E+04    3.3514898E+06
    4.34   600.000   -3.301E+02    3.3687276E+06   -5.1036554E+04   -3.0245492E+04    3.3687276E+06    3.0245469E+04    3.3895186E+06
    4.35   600.000   -3.304E+02    3.4163196E+06   -4.9357155E+04   -2.9107069E+04    3.4163196E+06    2.9107045E+04    3.4365697E+06
    4.36   600.000   -3.307E+02    3.4723399E+06   -4.8259527E+04   -2.8391567E+04    3.4723398E+06    2.8391541E+04    3.4922077E+06
    4.37   600.000   -3.310E+02    3.5360589E+06   -4.7777629E+04   -2.8109102E+04    3.5360589E+06    2.8109076E+04    3.5557274E+06
    4.38   600.000   -3.313E+02    3.6064338E+06   -4.7932942E+04   -2.8261358E+04    3.6064338E+06    2.8261331E+04    3.6261053E+06
    4.39   600.000   -3.316E+02    3.6821193E+06   -4.8734381E+04   -2.8839678E+04    3.6821192E+06    2.8839650E+04    3.7020139E+06
    4.40   600.000   -3.319E+02    3.7615471E+06   -5.0179226E+04   -2.9824451E+04    3.7615470E+06    2.9824423E+04    3.7819017E+06
    4.41   600.000   -3.322E+02    3.8430682E+06   -5.2254946E+04   -3.1186216E+04    3.8430681E+06    3.1186189E+04    3.8641369E+06
    4.42   600.000   -3.326E+02    3.9251422E+06   -5.4941613E+04   -3.2888562E+04    3.9251422E+06    3.2888535E+04    3.9471952E+06
    4.43   600.000   -3.329E+02    4.0065455E+06   -5.8214357E+04   -3.4892411E+04    4.0065455E+06    3.4892385E+04    4.0298674E+06
    4.44   600.000   -3.332E+02    4.0865686E+06   -6.2044898E+04   -3.7160672E+04    4.0865685E+06    3.7160646E+04    4.1114527E+06
    4.45   600.000   -3.335E+02    4.1651721E+06   -6.6401049E+04   -3.9661805E+04    4.1651720E+06    3.9661779E+04    4.1919113E+06
    4.46   600.000   -3.338E+02    4.2430823E+06   -7.1243346E+04   -4.2370912E+04    4.2430822E+06    4.2370887E+04    4.2719546E+06
    4.47   600.000   -3.341E+02    4.3218121E+06   -7.6518963E+04   -4.5267736E+04    4.3218120E+06    4.5267712E+04    4.3530633E+06
    4.48   600.000   -3.344E+02    4.4036084E+06   -8.2154387E+04   -4.8332137E+04    4.4036083E+06    4.8332114E+04    4.4374306E+06
    4.49   600.000   -3.348E+02    4.4913284E+06   -8.8049504E+04   -5.1538757E+04    4.4913283E+06    5.1538734E+04    4.5278390E+06
    4.50   600.000   -3.351E+02    4.5882584E+06   -9.4076047E+04   -5.4853098E+04    4.5882583E+06    5.4853076E+04    4.6274812E+06
    4.51   600.000   -3.354E+02    4.6978909E+06   -1.0008261E+05   -5.8230825E+04    4.6978908E+06    5.8230804E+04    4.7397425E+06
    4.52   600.000   -3.357E+02    4.8236774E+06   -1.0590656E+05   -6.1620968E+04    4.8236773E+06    6.1620948E+04    4.8679629E+06
    4.53   600.000   -3.360E+02    4.9687776E+06   -1.1139108E+05   -6.4972199E+04    4.9687775E+06    6.4972179E+04    5.0151964E+06
    4.54   600.000   -3.364E+02    5.1358194E+06   -1.1640330E+05   -6.8240065E+04    5.1358193E+06    6.8240046E+04    5.1839826E+06
    4.55   600.000   -3.367E+02    5.3266833E+06   -1.2084904E+05   -7.1392526E+04    5.3266832E+06    7.1392507E+04    5.3761397E+06
    4.56   600.000   -3.370E+02    5.5423186E+06   -1.2467997E+05   -7.4411594E+04    5.5423185E+06    7.4411575E+04    5.5925869E+06
    4.57   600.000   -3.374E+02    5.7826002E+06   -1.2789157E+05   -7.7290317E+04    5.7826001E+06    7.7290298E+04    5.8332014E+06
    4.58   600.000   -3.377E+02    6.0462306E+06   -1.3051326E+05   -8.0026199E+04    6.0462305E+06    8.0026180E+04    6.0967176E+06
    4.59   600.000   -3.381E+02    6.3306982E+06   -1.3259427E+05   -8.2613666E+04    6.3306982E+06    8.2613647E+04    6.3806788E+06
    4.60   600.000   -3.384E+02    6.6323000E+06   -1.3419039E+05   -8.5038704E+04    6.6323000E+06    8.5038685E+04    6.6814517E+06
    4.61   600.000   -3.388E+02    6.9462372E+06   -1.3535552E+05   -8.7278080E+04    6.9462372E+06    8.7278062E+04    6.9943146E+06
    4.62   600.000   -3.391E+02    7.2667874E+06   -1.3614004E+05   -8.9303987E+04    7.2667873E+06    8.9303969E+04    7.3136234E+06
    4.63   600.000   -3.395E+02    7.5875523E+06   -1.3659543E+05   -9.1093176E+04    7.5875523E+06    9.1093159E+04    7.6330545E+06
    4.64   600.000   -3.399E+02    7.9017761E+06   -1.3678273E+05   -9.2638206E+04    7.9017760E+06    9.2638190E+04    7.9459206E+06
    4.65   600.000   -3.403E+02    8.2027235E+06   -1.3678110E+05   -9.3957611E+04    8.2027235E+06    9.3957596E+04    8.2455470E+06
    4.66   600.000   -3.406E+02    8.4841011E+06   -1.3669273E+05   -9.5101552E+04    8.4841010E+06    9.5101537E+04    8.5256922E+06
    4.67   600.000   -3.410E+02    8.7404872E+06   -1.3664069E+05   -9.6149950E+04    8.7404872E+06    9.6149936E+04    8.7809779E+06
    4.68   600.000   -3.414E+02    8.9677210E+06   -1.3675787E+05   -9.7201365E+04    8.9677209E+06    9.7201351E+04    9.0072774E+06
    4.69   600.000   -3.418E+02    9.1631824E+06   -1.3716729E+05   -9.8353069E+04    9.1631823E+06    9.8353056E+04    9.2019965E+06
    4.70   600.000   -3.422E+02    9.3259026E+06   -1.3795673E+05   -9.9675671E+04    9.3259025E+06    9.9675657E+04    9.3641836E+06
    4.71   600.000   -3.426E+02    9.4564654E+06   -1.3915348E+05   -1.0118820E+05    9.4564653E+06    1.0118819E+05    9.4944306E+06
    4.72   600.000   -3.430E+02    9.5567100E+06   -1.4070568E+05   -1.0284073E+05    9.5567100E+06    1.0284071E+05    9.5945749E+06
    4.73   600.000   -3.434E+02    9.6292944E+06   -1.4247620E+05   -1.0451024E+05    9.6292944E+06    1.0451022E+05    9.6672603E+06
    4.74   600.000   -3.438E+02    9.6772165E+06   -1.4425167E+05   -1.0601228E+05    9.6772165E+06    1.0601226E+05    9.7154559E+06
    4.75   600.000   -3.442E+02    9.7033992E+06   -1.4576558E+05   -1.0712626E+05    9.7033991E+06    1.0712625E+05    9.7420385E+06
    4.76   600.000   -3.446E+02    9.7104229E+06   -1.4673093E+05   -1.0762896E+05    9.7104228E+06    1.0762894E+05    9.7495248E+06
    4.77   600.000   -3.450E+02    9.7004458E+06   -1.4687621E+05   -1.0732889E+05    9.7004457E+06    1.0732888E+05    9.7399931E+06
    4.78   600.000   -3.454E+02    9.6753012E+06   -1.4597875E+05   -1.0609486E+05    9.6753012E+06    1.0609484E+05    9.7151851E+06
    4.79   600.000   -3.458E+02    9.6367175E+06   -1.4389065E+05   -1.0387369E+05    9.6367175E+06    1.0387367E+05    9.6767345E+06
    4.80   600.000   -3.462E+02    9.5865819E+06   -1.4055410E+05   -1.0069517E+05    9.5865819E+06    1.0069516E+05    9.6264408E+06
    4.81   600.000   -3.465E+02    9.5271664E+06   -1.3600507E+05   -9.6664519E+04    9.5271663E+06    9.6664511E+04    9.5665069E+06
    4.82   600.000   -3.469E+02    9.4612536E+06   -1.3036546E+05   -9.1944924E+04    9.4612536E+06    9.1944920E+04    9.4996741E+06
    4.83   600.000   -3.473E+02    9.3921357E+06   -1.2382562E+05   -8.6733973E+04    9.3921357E+06    8.6733974E+04    9.4292273E+06
    4.84   600.000   -3.477E+02    9.3234921E+06   -1.1662011E+05   -8.1238386E+04    9.3234920E+06    8.1238392E+04    9.3588738E+06
    4.85   600.000   -3.481E+02    9.2591835E+06   -1.0900088E+05   -7.5651129E+04    9.2591834E+06    7.5651139E+04    9.2925332E+06
    4.86   600.000   -3.484E+02    9.2030030E+06   -1.0121194E+05   -7.0134187E+04    9.2030030E+06    7.0134202E+04    9.2340808E+06
    4.87   600.000   -3.488E+02    9.1584200E+06   -9.3469367E+04   -6.4808944E+04    9.1584200E+06    6.4808962E+04    9.1870804E+06
    4.88   600.000   -3.492E+02    9.1283349E+06   -8.5949067E+04   -5.9754612E+04    9.1283348E+06    5.9754634E+04    9.1545293E+06
    4.89   600.000   -3.495E+02    9.1148549E+06   -7.8782884E+04   -5.5013591E+04    9.1148549E+06    5.5013616E+04    9.1386242E+06
    4.90   600.000   -3.499E+02    9.1190996E+06   -7.2061550E+04   -5.0601239E+04    9.1190996E+06    5.0601266E+04    9.1405599E+06
    4.91   600.000   -3.503E+02    9.1410529E+06   -6.5841458E+04   -4.6516667E+04    9.1410529E+06    4.6516695E+04    9.1603777E+06
    4.92   600.000   -3.506E+02    9.1794902E+06   -6.0151641E+04   -4.2751174E+04    9.1794901E+06    4.2751203E+04    9.1968906E+06
    4.93   600.000   -3.510E+02    9.2320049E+06   -5.4998131E+04   -3.9292051E+04    9.2320049E+06    3.9292079E+04    9.2477110E+06
    4.94   600.000   -3.514E+02    9.2951486E+06   -5.0364709E+04   -3.6121403E+04    9.2951486E+06    3.6121431E+04    9.3093919E+06
    4.95   600.000   -3.517E+02    9.3646739E+06   -4.6211292E+04   -3.3211790E+04    9.3646739E+06    3.3211817E+04    9.3776734E+06
    4.96   600.000   -3.521E+02    9.4358485E+06   -4.2472780E+04   -3.0521864E+04    9.4358484E+06    3.0521891E+04    9.4477994E+06
    4.97   600.000   -3.525E+02    9.5037937E+06   -3.9061517E+04   -2.7995382E+04    9.5037937E+06    2.7995409E+04    9.5148598E+06
    4.98   600.000   -3.529E+02    9.5638008E+06   -3.5875435E+04   -2.5565745E+04    9.5638008E+06    2.5565772E+04    9.5741105E+06
    4.99   600.000   -3.532E+02    9.6115901E+06   -3.2811884E+04   -2.3166242E+04    9.6115901E+06    2.3166269E+04    9.6212357E+06
    5.00   600.000   -3.536E+02    9.6434953E+06   -2.9784928E+04   -2.0743967E+04    9.6434952E+06    2.0743995E+04    9.6525362E+06
# T(K) = 700.00   Npoints =    1001   V(cm^3) =  1.231E-20
   -5.00   700.000    3.720E+02    2.7371275E+06   -4.8037900E+04   -4.3920347E+04    2.7371275E+06    4.3920351E+04    2.7412451E+06
   -4.99   700.000    3.710E+02    2.7652272E+06   -4.7564408E+04   -4.3516190E+04    2.7652272E+06    4.3516194E+04    2.7692755E+06
   -4.98   700.000    3.701E+02    2.7919026E+06   -4.6938111E+04   -4.2981643E+04    2.7919026E+06    4.2981646E+04    2.7958591E+06
   -4.97   700.000    3.691E+02    2.8177168E+06   -4.6157945E+04   -4.2312909E+04    2.8177169E+06    4.2312911E+04    2.8215619E+06
   -4.96   700.000    3.682E+02    2.8430929E+06   -4.5221182E+04   -4.1504164E+04    2.8430929E+06    4.1504165E+04    2.8468100E+06
   -4.95   700.000    3.672E+02    2.8682940E+06   -4.4125092E+04   -4.0549339E+04    2.8682940E+06    4.0549338E+04    2.8718697E+06
   -4.94   700.000    3.663E+02    2.8934119E+06   -4.2868869E+04   -3.9444150E+04    2.8934120E+06    3.9444149E+04    2.8968367E+06
   -4.93   700.000    3.654E+02    2.9183647E+06   -4.1455558E+04   -3.8188121E+04    2.9183647E+06    3.8188119E+04    2.9216321E+06
   -4.92   700.000    3.645E+02    2.9429024E+06   -3.9893714E+04   -3.6786320E+04    2.9429025E+06    3.6786317E+04    2.9460099E+06
   -4.91   700.000    3.637E+02    2.9666250E+06   -3.8198550E+04   -3.5250597E+04    2.9666250E+06    3.5250592E+04    2.9695730E+06
   -4.90   700.000    3.628E+02    2.9890088E+06   -3.6392389E+04   -3.3600126E+04    2.9890089E+06    3.3600121E+04    2.9918011E+06
   -4.89   700.000    3.619E+02    3.0094428E+06   -3.4504301E+04   -3.1861139E+04    3.0094428E+06    3.1861133E+04    3.0120860E+06
   -4.88   700.000    3.611E+02    3.0272696E+06   -3.2568907E+04   -3.0065814E+04    3.0272696E+06    3.0065807E+04    3.0297727E+06
   -4.87   700.000    3.603E+02    3.0418280E+06   -3.0624421E+04   -2.8250388E+04    3.0418280E+06    2.8250381E+04    3.0442020E+06
   -4.86   700.000    3.594E+02    3.0524914E+06   -2.8710114E+04   -2.6452683E+04    3.0524914E+06    2.6452676E+04    3.0547489E+06
   -4.85   700.000    3.586E+02    3.0586994E+06   -2.6863500E+04   -2.4709315E+04    3.0586994E+06    2.4709308E+04    3.0608536E+06
   -4.84   700.000    3.578E+02    3.0599797E+06   -2.5117567E+04   -2.3052936E+04    3.0599797E+06    2.3052928E+04    3.0620443E+06
   -4.83   700.000    3.570E+02    3.0559606E+06   -2.3498430E+04   -2.1509860E+04    3.0559606E+06    2.1509853E+04    3.0579492E+06
   -4.82   700.000    3.562E+02    3.0463758E+06   -2.2023707E+04   -2.0098410E+04    3.0463758E+06    2.0098403E+04    3.0483011E+06
   -4.81   700.000    3.554E+02    3.0310629E+06   -2.0701831E+04   -1.8828168E+04    3.0310629E+06    1.8828161E+04    3.0329365E+06
   -4.80   700.000    3.547E+02    3.0099594E+06   -1.9532378E+04   -1.7700226E+04    3.0099594E+06    1.7700219E+04    3.0117916E+06
   -4.79   700.000    3.539E+02    2.9830972E+06   -1.8507310E+04   -1.6708331E+04    2.9830972E+06    1.6708324E+04    2.9848962E+06
   -4.78   700.000    3.531E+02    2.9505956E+06   -1.7612892E+04   -1.5840689E+04    2.9505956E+06    1.5840683E+04    2.9523678E+06
   -4.77   700.000    3.524E+02    2.9126550E+06   -1.6831962E+04   -1.5082099E+04    2.9126550E+06    1.5082092E+04    2.9144049E+06
   -4.76   700.000    3.516E+02    2.8695482E+06   -1.6146165E+04   -1.4416050E+04    2.8695482E+06    1.4416043E+04    2.8712783E+06
   -4.75   700.000    3.509E+02    2.8216107E+06   -1.5537843E+04   -1.3826486E+04    2.8216107E+06    1.3826480E+04    2.8233220E+06
   -4.74   700.000    3.501E+02    2.7692281E+06   -1.4991352E+04   -1.3299025E+04    2.7692280E+06    1.3299018E+04    2.7709204E+06
   -4.73   700.000    3.494E+02    2.7128222E+06   -1.4493733E+04   -1.2821561E+04    2.7128222E+06    1.2821553E+04    2.7144944E+06
   -4.72   700.000    3.486E+02    2.6528356E+06   -1.4034779E+04   -1.2384328E+04    2.6528356E+06    1.2384320E+04    2.6544860E+06
   -4.71   700.000    3.479E+02    2.5897153E+06   -1.3606655E+04   -1.1979560E+04    2.5897152E+06    1.1979552E+04    2.5913423E+06
   -4.70   700.000    3.472E+02    2.5238981E+06   -1.3203286E+04   -1.1600961E+04    2.5238980E+06    1.1600953E+04    2.5255004E+06
   -4.69   700.000    3.465E+02    2.4557977E+06   -1.2819695E+04   -1.1243157E+04    2.4557977E+06    1.1243149E+04    2.4573743E+06
   -4.68   700.000    3.458E+02    2.3857956E+06   -1.2451482E+04   -1.0901287E+04    2.3857956E+06    1.0901279E+04    2.3873458E+06
   -4.67   700.000    3.451E+02    2.3142352E+06   -1.2094508E+04   -1.0570790E+04    2.3142352E+06    1.0570781E+04    2.3157589E+06
   -4.66   700.000    3.444E+02    2.2414210E+06   -1.1744813E+04   -1.0247391E+04    2.2414210E+06    1.0247383E+04    2.2429184E+06
   -4.65   700.000    3.437E+02    2.1676199E+06   -1.1398714E+04   -9.9272311E+03    2.1676199E+06    9.9272225E+03    2.1690914E+06
   -4.64   700.000    3.430E+02    2.0930653E+06   -1.1052993E+04   -9.6070475E+03    2.0930653E+06    9.6070392E+03    2.0945112E+06
   -4.63   700.000    3.424E+02    2.0179606E+06   -1.0705081E+04   -9.2843280E+03    2.0179606E+06    9.2843200E+03    2.0193813E+06
   -4.62   700.000    3.417E+02    1.9424829E+06   -1.0353169E+04   -8.9573714E+03    1.9424829E+06    8.9573637E+03    1.9438787E+06
   -4.61   700.000    3.411E+02    1.8667855E+06   -9.9961950E+03   -8.6252428E+03    1.8667855E+06    8.6252354E+03    1.8681565E+06
   -4.60   700.000    3.405E+02    1.7910005E+06   -9.6337404E+03   -8.2876411E+03    1.7910005E+06    8.2876339E+03    1.7923466E+06
   -4.59   700.000    3.399E+02    1.7152422E+06   -9.2658585E+03   -7.9447258E+03    1.7152423E+06    7.9447189E+03    1.7165634E+06
   -4.58   700.000    3.393E+02    1.6396136E+06   -8.8928911E+03   -7.5969495E+03    1.6396136E+06    7.5969428E+03    1.6409096E+06
   -4.57   700.000    3.387E+02    1.5642137E+06   -8.5153097E+03   -7.2449257E+03    1.5642137E+06    7.2449191E+03    1.5654841E+06
   -4.56   700.000    3.382E+02    1.4891482E+06   -8.1336014E+03   -6.8893376E+03    1.4891483E+06    6.8893310E+03    1.4903925E+06
   -4.55   700.000    3.376E+02    1.4145404E+06   -7.7481957E+03   -6.5308792E+03    1.4145404E+06    6.5308726E+03    1.4157577E+06
   -4.54   700.000    3.371E+02    1.3405398E+06   -7.3594315E+03   -6.1702149E+03    1.3405398E+06    6.1702083E+03    1.3417291E+06
   -4.53   700.000    3.366E+02    1.2673292E+06   -6.9675616E+03   -5.8079577E+03    1.2673293E+06    5.8079510E+03    1.2684889E+06
   -4.52   700.000    3.361E+02    1.1951260E+06   -6.5728029E+03   -5.4446765E+03    1.1951260E+06    5.4446698E+03    1.1962541E+06
   -4.51   700.000    3.356E+02    1.1241790E+06   -6.1754410E+03   -5.0809491E+03    1.1241791E+06    5.0809425E+03    1.1252736E+06
   -4.50   700.000    3.352E+02    1.0547619E+06   -5.7759817E+03   -4.7174658E+03    1.0547619E+06    4.7174593E+03    1.0558204E+06
   -4.49   700.000    3.347E+02    9.8716235E+05   -5.3753308E+03   -4.3551702E+03    9.8716240E+05    4.3551638E+03    9.8818256E+05
   -4.48   700.000    3.343E+02    9.2167156E+05   -4.9749593E+03   -3.9954032E+03    9.2167161E+05    3.9953970E+03    9.2265116E+05
   -4.47   700.000    3.339E+02    8.5857286E+05   -4.5770111E+03   -3.6400066E+03    8.5857291E+05    3.6400007E+03    8.5950992E+05
   -4.46   700.000    3.334E+02    7.9813276E+05   -4.1843152E+03   -3.2913482E+03    7.9813281E+05    3.2913426E+03    7.9902578E+05
   -4.45   700.000    3.330E+02    7.4059385E+05   -3.8002893E+03   -2.9522500E+03    7.4059390E+05    2.9522448E+03    7.4144194E+05
   -4.44   700.000    3.326E+02    6.8616996E+05   -3.4287444E+03   -2.6258276E+03    6.8617000E+05    2.6258227E+03    6.8697292E+05
   -4.43   700.000    3.322E+02    6.3504293E+05   -3.0736258E+03   -2.3152713E+03    6.3504298E+05    2.3152669E+03    6.3580133E+05
   -4.42   700.000    3.318E+02    5.8736046E+05   -2.7387352E+03   -2.0236129E+03    5.8736050E+05    2.0236090E+03    5.8807562E+05
   -4.41   700.000    3.314E+02    5.4323422E+05   -2.4274773E+03   -1.7535173E+03    5.4323426E+05    1.7535138E+03    5.4390822E+05
   -4.40   700.000    3.310E+02    5.0273801E+05   -2.1426622E+03   -1.5071294E+03    5.0273805E+05    1.5071263E+03    5.0337358E+05
   -4.39   700.000    3.305E+02    4.6590577E+05   -1.8863805E+03   -1.2859882E+03    4.6590581E+05    1.2859855E+03    4.6650620E+05
   -4.38   700.000    3.301E+02    4.3272954E+05   -1.6599494E+03   -1.0910049E+03    4.3272958E+05    1.0910025E+03    4.3329852E+05
   -4.37   700.000    3.296E+02    4.0315795E+05   -1.4639227E+03   -9.2249275E+02    4.0315798E+05    9.2249064E+02    4.0369941E+05
   -4.36   700.000    3.291E+02    3.7709551E+05   -1.2981479E+03   -7.8023411E+02    3.7709554E+05    7.8023220E+02    3.7761345E+05
   -4.35   700.000    3.286E+02    3.5440346E+05   -1.1618568E+03   -6.6356755E+02    3.5440348E+05    6.6356578E+02    3.5490177E+05
   -4.34   700.000    3.281E+02    3.3490237E+05   -1.0537746E+03   -5.7148326E+02    3.3490240E+05    5.7148157E+02    3.3538469E+05
   -4.33   700.000    3.275E+02    3.1837696E+05   -9.7223743E+02   -5.0271692E+02    3.1837698E+05    5.0271526E+02    3.1884650E+05
   -4.32   700.000    3.269E+02    3.0458286E+05   -9.1531001E+02   -4.5583614E+02    3.0458288E+05    4.5583447E+02    3.0504236E+05
   -4.31   700.000    3.262E+02    2.9325532E+05   -8.8089925E+02   -4.2931684E+02    2.9325534E+05    4.2931513E+02    2.9370692E+05
   -4.30   700.000    3.255E+02    2.8411892E+05   -8.6686061E+02   -4.2160925E+02    2.8411894E+05    4.2160749E+02    2.8456419E+05
   -4.29   700.000    3.248E+02    2.7689771E+05   -8.7109582E+02   -4.3119522E+02    2.7689772E+05    4.3119339E+02    2.7733762E+05
   -4.28   700.000    3.240E+02    2.7132468E+05   -8.9164070E+02   -4.5663910E+02    2.7132469E+05    4.5663721E+02    2.7175970E+05
   -4.27   700.000    3.231E+02    2.6714976E+05   -9.2674150E+02   -4.9663475E+02    2.6714977E+05    4.9663281E+02    2.6757988E+05
   -4.26   700.000    3.222E+02    2.6414548E+05   -9.7491886E+02   -5.5005067E+02    2.6414549E+05    5.5004871E+02    2.6457036E+05
   -4.25   700.000    3.212E+02    2.6211000E+05   -1.0350186E+03   -6.1597390E+02    2.6211001E+05    6.1597195E+02    2.6252906E+05
   -4.24   700.000    3.202E+02    2.6086736E+05   -1.1062486E+03   -6.9375092E+02    2.6086737E+05    6.9374900E+02    2.6127987E+05
   -4.23   700.000    3.190E+02    2.6026533E+05   -1.1881980E+03   -7.8301987E+02    2.6026535E+05    7.8301802E+02    2.6067052E+05
   -4.22   700.000    3.178E+02    2.6017147E+05   -1.2808337E+03   -8.8372359E+02    2.6017148E+05    8.8372184E+02    2.6056859E+05
   -4.21   700.000    3.165E+02    2.6046824E+05   -1.3844628E+03   -9.9608932E+02    2.6046825E+05    9.9608771E+02    2.6085662E+05
   -4.20   700.000    3.151E+02    2.6104810E+05   -1.4996494E+03   -1.1205610E+03    2.6104811E+05    1.1205595E+03    2.6142720E+05
   -4.19   700.000    3.136E+02    2.6180932E+05   -1.6270798E+03   -1.2576758E+03    2.6180932E+05    1.2576745E+03    2.6217873E+05
   -4.18   700.000    3.120E+02    2.6265315E+05   -1.7673777E+03   -1.4078889E+03    2.6265316E+05    1.4078878E+03    2.6301265E+05
   -4.17   700.000    3.103E+02    2.6348279E+05   -1.9208895E+03   -1.5713659E+03    2.6348279E+05    1.5713650E+03    2.6383232E+05
   -4.16   700.000    3.085E+02    2.6420410E+05   -2.0874713E+03   -1.7477778E+03    2.6420411E+05    1.7477771E+03    2.6454381E+05
   -4.15   700.000    3.065E+02    2.6472818E+05   -2.2663212E+03   -1.9361404E+03    2.6472819E+05    1.9361399E+03    2.6505837E+05
   -4.14   700.000    3.044E+02    2.6497517E+05   -2.4558952E+03   -2.1347377E+03    2.6497517E+05    2.1347373E+03    2.6529633E+05
   -4.13   700.000    3.021E+02    2.6487915E+05   -2.6539332E+03   -2.3411532E+03    2.6487915E+05    2.3411530E+03    2.6519193E+05
   -4.12   700.000    2.998E+02    2.6439324E+05   -2.8575987E+03   -2.5524132E+03    2.6439325E+05    2.5524130E+03    2.6469844E+05
   -4.11   700.000    2.972E+02    2.6349449E+05   -3.0637117E+03   -2.7652193E+03    2.6349450E+05    2.7652191E+03    2.6379299E+05
   -4.10   700.000    2.946E+02    2.6218774E+05   -3.2690365E+03   -2.9762342E+03    2.6218775E+05    2.9762341E+03    2.6248055E+05
   -4.09   700.000    2.917E+02    2.6050813E+05   -3.4705764E+03   -3.1823717E+03    2.6050813E+05    3.1823715E+03    2.6079634E+05
   -4.08   700.000    2.888E+02    2.5852166E+05   -3.6658289E+03   -3.3810469E+03    2.5852167E+05    3.3810467E+03    2.5880645E+05
   -4.07   700.000    2.857E+02    2.5632372E+05   -3.8529666E+03   -3.5703522E+03    2.5632373E+05    3.5703519E+03    2.5660634E+05
   -4.06   700.000    2.825E+02    2.5403540E+05   -4.0309250E+03   -3.7491407E+03    2.5403541E+05    3.7491403E+03    2.5431719E+05
   -4.05   700.000    2.791E+02    2.5179797E+05   -4.1993968E+03   -3.9170187E+03    2.5179797E+05    3.9170182E+03    2.5208035E+05
   -4.04   700.000    2.756E+02    2.4976573E+05   -4.3587488E+03   -4.0742625E+03    2.4976574E+05    4.0742618E+03    2.5005022E+05
   -4.03   700.000    2.721E+02    2.4809801E+05   -4.5098905E+03   -4.2216886E+03    2.4809801E+05    4.2216879E+03    2.4838622E+05
   -4.02   700.000    2.684E+02    2.4695078E+05   -4.6541257E+03   -4.3605107E+03    2.4695079E+05    4.3605099E+03    2.4724440E+05
   -4.01   700.000    2.647E+02    2.4646881E+05   -4.7930170E+03   -4.4922110E+03    2.4646881E+05    4.4922101E+03    2.4676962E+05
   -4.00   700.000    2.609E+02    2.4677880E+05   -4.9282833E+03   -4.6184472E+03    2.4677880E+05    4.6184462E+03    2.4708864E+05
   -3.99   700.000    2.571E+02    2.4798425E+05   -5.0617357E+03   -4.7409989E+03    2.4798426E+05    4.7409979E+03    2.4830499E+05
   -3.98   700.000    2.532E+02    2.5016224E+05   -5.1952452E+03   -4.8617455E+03    2.5016224E+05    4.8617445E+03    2.5049574E+05
   -3.97   700.000    2.492E+02    2.5336223E+05   -5.3307257E+03   -4.9826576E+03    2.5336224E+05    4.9826566E+03    2.5371030E+05
   -3.96   700.000    2.453E+02    2.5760709E+05   -5.4701122E+03   -5.1057818E+03    2.5760709E+05    5.1057808E+03    2.5797142E+05
   -3.95   700.000    2.412E+02    2.6289573E+05   -5.6153210E+03   -5.2332018E+03    2.6289573E+05    5.2332007E+03    2.6327785E+05
   -3.94   700.000    2.372E+02    2.6920732E+05   -5.7681819E+03   -5.3669682E+03    2.6920732E+05    5.3669672E+03    2.6960854E+05
   -3.93   700.000    2.332E+02    2.7650643E+05   -5.9303481E+03   -5.5089998E+03    2.7650643E+05    5.5089988E+03    2.7692778E+05
   -3.92   700.000    2.291E+02    2.8474843E+05   -6.1031935E+03   -5.6609664E+03    2.8474843E+05    5.6609654E+03    2.8519066E+05
   -3.91   700.000    2.251E+02    2.9388478E+05   -6.2877151E+03   -5.8241719E+03    2.9388477E+05    5.8241709E+03    2.9434832E+05
   -3.90   700.000    2.210E+02    3.0386730E+05   -6.4844564E+03   -5.9994542E+03    3.0386730E+05    5.9994532E+03    3.0435230E+05
   -3.89   700.000    2.169E+02    3.1465115E+05   -6.6934671E+03   -6.1871199E+03    3.1465115E+05    6.1871189E+03    3.1515750E+05
   -3.88   700.000    2.129E+02    3.2619592E+05   -6.9143073E+03   -6.3869252E+03    3.2619591E+05    6.3869242E+03    3.2672329E+05
   -3.87   700.000    2.089E+02    3.3846481E+05   -7.1460972E+03   -6.5981072E+03    3.3846480E+05    6.5981061E+03    3.3901279E+05
   -3.86   700.000    2.050E+02    3.5142197E+05   -7.3876073E+03   -6.8194659E+03    3.5142196E+05    6.8194648E+03    3.5199011E+05
   -3.85   700.000    2.011E+02    3.6502831E+05   -7.6373765E+03   -7.0494853E+03    3.6502830E+05    7.0494842E+03    3.6561619E+05
   -3.84   700.000    1.972E+02    3.7923636E+05   -7.8938409E+03   -7.2864774E+03    3.7923635E+05    7.2864762E+03    3.7984372E+05
   -3.83   700.000    1.935E+02    3.9398506E+05   -8.1554514E+03   -7.5287267E+03    3.9398505E+05    7.5287253E+03    3.9461178E+05
   -3.82   700.000    1.898E+02    4.0919514E+05   -8.4207574E+03   -7.7746089E+03    4.0919513E+05    7.7746074E+03    4.0984127E+05
   -3.81   700.000    1.862E+02    4.2476599E+05   -8.6884390E+03   -8.0226607E+03    4.2476598E+05    8.0226590E+03    4.2543176E+05
   -3.80   700.000    1.828E+02    4.4057457E+05   -8.9572731E+03   -8.2715821E+03    4.4057455E+05    8.2715802E+03    4.4126025E+05
   -3.79   700.000    1.794E+02    4.5647642E+05   -9.2260358E+03   -8.5201689E+03    4.5647641E+05    8.5201668E+03    4.5718228E+05
   -3.78   700.000    1.762E+02    4.7230895E+05   -9.4933531E+03   -8.7671855E+03    4.7230893E+05    8.7671831E+03    4.7303510E+05
   -3.77   700.000    1.731E+02    4.8789623E+05   -9.7575298E+03   -9.0112049E+03    4.8789621E+05    9.0112023E+03    4.8864254E+05
   -3.76   700.000    1.702E+02    5.0305510E+05   -1.0016396E+04   -9.2504584E+03    5.0305509E+05    9.2504555E+03    5.0382102E+05
   -3.75   700.000    1.673E+02    5.1760188E+05   -1.0267213E+04   -9.4827359E+03    5.1760187E+05    9.4827328E+03    5.1838634E+05
   -3.74   700.000    1.647E+02    5.3135939E+05   -1.0506684E+04   -9.7053775E+03    5.3135937E+05    9.7053742E+03    5.3216068E+05
   -3.73   700.000    1.621E+02    5.4416418E+05   -1.0731074E+04   -9.9153737E+03    5.4416416E+05    9.9153702E+03    5.4497986E+05
   -3.72   700.000    1.597E+02    5.5587363E+05   -1.0936448E+04   -1.0109565E+04    5.5587361E+05    1.0109561E+04    5.5670050E+05
   -3.71   700.000    1.574E+02    5.6637248E+05   -1.1118974E+04   -1.0284901E+04    5.6637246E+05    1.0284897E+04    5.6720654E+05
   -3.70   700.000    1.553E+02    5.7557792E+05   -1.1275247E+04   -1.0438703E+04    5.7557790E+05    1.0438699E+04    5.7641445E+05
   -3.69   700.000    1.533E+02    5.8344229E+05   -1.1402536E+04   -1.0568852E+04    5.8344227E+05    1.0568849E+04    5.8427596E+05
   -3.68   700.000    1.514E+02    5.8995236E+05   -1.1498929E+04   -1.0673867E+04    5.8995234E+05    1.0673863E+04    5.9077740E+05
   -3.67   700.000    1.496E+02    5.9512482E+05   -1.1563329E+04   -1.0752843E+04    5.9512481E+05    1.0752840E+04    5.9593529E+05
   -3.66   700.000    1.479E+02    5.9899862E+05   -1.1595345E+04   -1.0805302E+04    5.9899860E+05    1.0805299E+04    5.9978864E+05
   -3.65   700.000    1.463E+02    6.0162542E+05   -1.1595127E+04   -1.0831012E+04    6.0162540E+05    1.0831010E+04    6.0238952E+05
   -3.64   700.000    1.448E+02    6.0306061E+05   -1.1563233E+04   -1.0829867E+04    6.0306060E+05    1.0829865E+04    6.0379396E+05
   -3.63   700.000    1.434E+02    6.0335694E+05   -1.1500596E+04   -1.0801888E+04    6.0335693E+05    1.0801886E+04    6.0405564E+05
   -3.62   700.000    1.420E+02    6.0256244E+05   -1.1408624E+04   -1.0747386E+04    6.0256243E+05    1.0747384E+04    6.0322367E+05
   -3.61   700.000    1.407E+02    6.0072327E+05   -1.1289417E+04   -1.0667253E+04    6.0072325E+05    1.0667252E+04    6.0134542E+05
   -3.60   700.000    1.395E+02    5.9789058E+05   -1.1146047E+04   -1.0563323E+04    5.9789057E+05    1.0563322E+04    5.9847329E+05
   -3.59   700.000    1.383E+02    5.9412980E+05   -1.0982814E+04   -1.0438694E+04    5.9412979E+05    1.0438694E+04    5.9467391E+05
   -3.58   700.000    1.372E+02    5.8952976E+05   -1.0805390E+04   -1.0297944E+04    5.8952976E+05    1.0297944E+04    5.9003720E+05
   -3.57   700.000    1.361E+02    5.8420954E+05   -1.0620790E+04   -1.0147138E+04    5.8420954E+05    1.0147138E+04    5.8468319E+05
   -3.56   700.000    1.350E+02    5.7832119E+05   -1.0437145E+04   -9.9936262E+03    5.7832118E+05    9.9936270E+03    5.7876470E+05
   -3.55   700.000    1.339E+02    5.7204756E+05   -1.0263301E+04   -9.8456520E+03    5.7204756E+05    9.8456531E+03    5.7246521E+05
   -3.54   700.000    1.329E+02    5.6559535E+05   -1.0108298E+04   -9.7118258E+03    5.6559535E+05    9.7118270E+03    5.6599182E+05
   -3.53   700.000    1.319E+02    5.5918418E+05   -9.9808354E+03   -9.6005728E+03    5.5918418E+05    9.6005742E+03    5.5956444E+05
   -3.52   700.000    1.309E+02    5.5303322E+05   -9.8887974E+03   -9.5196353E+03    5.5303321E+05    9.5196369E+03    5.5340238E+05
   -3.51   700.000    1.299E+02    5.4734701E+05   -9.8388974E+03   -9.4756958E+03    5.4734701E+05    9.4756974E+03    5.4771021E+05
   -3.50   700.000    1.289E+02    5.4230220E+05   -9.8364745E+03   -9.4741468E+03    5.4230220E+05    9.4741484E+03    5.4266453E+05
   -3.49   700.000    1.280E+02    5.3803654E+05   -9.8854211E+03   -9.5189945E+03    5.3803654E+05    9.5189961E+03    5.3840297E+05
   -3.48   700.000    1.270E+02    5.3464145E+05   -9.9882046E+03   -9.6128578E+03    5.3464145E+05    9.6128592E+03    5.3501680E+05
   -3.47   700.000    1.260E+02    5.3215878E+05   -1.0145937E+04   -9.7570181E+03    5.3215878E+05    9.7570194E+03    5.3254769E+05
   -3.46   700.000    1.250E+02    5.3058228E+05   -1.0358457E+04   -9.9514858E+03    5.3058228E+05    9.9514868E+03    5.3098925E+05
   -3.45   700.000    1.241E+02    5.2986364E+05   -1.0624408E+04   -1.0195064E+04    5.2986364E+05    1.0195065E+04    5.3029299E+05
   -3.44   700.000    1.231E+02    5.2992250E+05   -1.0941299E+04   -1.0485410E+04    5.2992250E+05    1.0485411E+04    5.3037839E+05
   -3.43   700.000    1.221E+02    5.3065944E+05   -1.1305552E+04   -1.0819084E+04    5.3065943E+05    1.0819084E+04    5.3114590E+05
   -3.42   700.000    1.211E+02    5.3197027E+05   -1.1712527E+04   -1.1191592E+04    5.3197027E+05    1.1191592E+04    5.3249121E+05
   -3.41   700.000    1.202E+02    5.3375997E+05   -1.2156503E+04   -1.1597395E+04    5.3375996E+05    1.1597395E+04    5.3431907E+05
   -3.40   700.000    1.192E+02    5.3595405E+05   -1.2630594E+04   -1.2029853E+04    5.3595405E+05    1.2029853E+04    5.3655479E+05
   -3.39   700.000    1.182E+02    5.3850630E+05   -1.3126588E+04   -1.2481104E+04    5.3850629E+05    1.2481104E+04    5.3915178E+05
   -3.38   700.000    1.172E+02    5.4140155E+05   -1.3634726E+04   -1.2941872E+04    5.4140155E+05    1.2941872E+04    5.4209440E+05
   -3.37   700.000    1.162E+02    5.4465387E+05   -1.4143475E+04   -1.3401260E+04    5.4465386E+05    1.3401259E+04    5.4539608E+05
   -3.36   700.000    1.151E+02    5.4830066E+05   -1.4639387E+04   -1.3846609E+04    5.4830065E+05    1.3846608E+04    5.4909343E+05
   -3.35   700.000    1.141E+02    5.5239422E+05   -1.5107167E+04   -1.4263550E+04    5.5239421E+05    1.4263549E+04    5.5323783E+05
   -3.34   700.000    1.131E+02    5.5699247E+05   -1.5530048E+04   -1.4636335E+04    5.5699246E+05    1.4636334E+04    5.5788617E+05
   -3.33   700.000    1.121E+02    5.6215039E+05   -1.5890541E+04   -1.4948535E+04    5.6215038E+05    1.4948534E+04    5.6309239E+05
   -3.32   700.000    1.110E+02    5.6791369E+05   -1.6171562E+04   -1.5184101E+04    5.6791368E+05    1.5184100E+04    5.6890114E+05
   -3.31   700.000    1.100E+02    5.7431529E+05   -1.6357825E+04   -1.5328701E+04    5.7431528E+05    1.5328699E+04    5.7534440E+05
   -3.30   700.000    1.089E+02    5.8137500E+05   -1.6437346E+04   -1.5371169E+04    5.8137498E+05    1.5371167E+04    5.8244116E+05
   -3.29   700.000    1.079E+02    5.8910175E+05   -1.6402824E+04   -1.5304856E+04    5.8910173E+05    1.5304854E+04    5.9019970E+05
   -3.28   700.000    1.068E+02    5.9749758E+05   -1.6252671E+04   -1.5128642E+04    5.9749756E+05    1.5128640E+04    5.9862159E+05
   -3.27   700.000    1.057E+02    6.0656210E+05   -1.5991515E+04   -1.4847432E+04    6.0656209E+05    1.4847430E+04    6.0770617E+05
   -3.26   700.000    1.046E+02    6.1629615E+05   -1.5630065E+04   -1.4472028E+04    6.1629613E+05    1.4472026E+04    6.1745417E+05
   -3.25   700.000    1.036E+02    6.2670352E+05   -1.5184358E+04   -1.4018381E+04    6.2670350E+05    1.4018378E+04    6.2786948E+05
   -3.24   700.000    1.025E+02    6.3779019E+05   -1.4674481E+04   -1.3506328E+04    6.3779017E+05    1.3506324E+04    6.3895833E+05
   -3.23   700.000    1.014E+02    6.4956074E+05   -1.4122974E+04   -1.2958000E+04    6.4956072E+05    1.2957996E+04    6.5072569E+05
   -3.22   700.000    1.003E+02    6.6201246E+05   -1.3553114E+04   -1.2396137E+04    6.6201245E+05    1.2396133E+04    6.6316942E+05
   -3.21   700.000    9.920E+01    6.7512807E+05   -1.2987299E+04   -1.1842499E+04    6.7512805E+05    1.1842494E+04    6.7627285E+05
   -3.20   700.000    9.810E+01    6.8886811E+05   -1.2445699E+04   -1.1316553E+04    6.8886810E+05    1.1316548E+04    6.8999725E+05
   -3.19   700.000    9.699E+01    7.0316459E+05   -1.1945262E+04   -1.0834528E+04    7.0316457E+05    1.0834522E+04    7.0427531E+05
   -3.18   700.000    9.588E+01    7.1791685E+05   -1.1499109E+04   -1.0408858E+04    7.1791684E+05    1.0408852E+04    7.1900709E+05
   -3.17   700.000    9.476E+01    7.3299081E+05   -1.1116306E+04   -1.0047998E+04    7.3299080E+05    1.0047992E+04    7.3405911E+05
   -3.16   700.000    9.363E+01    7.4822168E+05   -1.0801973E+04   -9.7565626E+03    7.4822167E+05    9.7565556E+03    7.4926708E+05
   -3.15   700.000    9.250E+01    7.6342025E+05   -1.0557667E+04   -9.5357281E+03    7.6342024E+05    9.5357208E+03    7.6444218E+05
   -3.14   700.000    9.135E+01    7.7838187E+05   -1.0382006E+04   -9.3838595E+03    7.7838186E+05    9.3838519E+03    7.7938000E+05
   -3.13   700.000    9.019E+01    7.9289719E+05   -1.0271475E+04   -9.2972989E+03    7.9289718E+05    9.2972911E+03    7.9387135E+05
   -3.12   700.000    8.901E+01    8.0676340E+05   -1.0221347E+04   -9.2712597E+03    8.0676339E+05    9.2712517E+03    8.0771348E+05
   -3.11   700.000    8.782E+01    8.1979455E+05   -1.0226632E+04   -9.3007378E+03    8.1979454E+05    9.3007296E+03    8.2072044E+05
   -3.10   700.000    8.660E+01    8.3182995E+05   -1.0282942E+04   -9.3813322E+03    8.3182994E+05    9.3813240E+03    8.3273155E+05
   -3.09   700.000    8.537E+01    8.4273974E+05   -1.0387136E+04   -9.5098556E+03    8.4273973E+05    9.5098473E+03    8.4361701E+05
   -3.08   700.000    8.411E+01    8.5242739E+05   -1.0537649E+04   -9.6846286E+03    8.5242738E+05    9.6846204E+03    8.5328040E+05
   -3.07   700.000    8.282E+01    8.6082913E+05   -1.0734429E+04   -9.9053986E+03    8.6082912E+05    9.9053905E+03    8.6165815E+05
   -3.06   700.000    8.149E+01    8.6791098E+05   -1.0978486E+04   -1.0172885E+04    8.6791098E+05    1.0172877E+04    8.6871658E+05
   -3.05   700.000    8.014E+01    8.7366417E+05   -1.1271129E+04   -1.0488031E+04    8.7366417E+05    1.0488023E+04    8.7444726E+05
   -3.04   700.000    7.874E+01    8.7809987E+05   -1.1613042E+04   -1.0851108E+04    8.7809986E+05    1.0851101E+04    8.7886179E+05
   -3.03   700.000    7.731E+01    8.8124408E+05   -1.2003367E+04   -1.1260840E+04    8.8124407E+05    1.1260832E+04    8.8198660E+05
   -3.02   700.000    7.583E+01    8.8313342E+05   -1.2438991E+04   -1.1713726E+04    8.8313341E+05    1.1713719E+04    8.8385868E+05
   -3.01   700.000    7.430E+01    8.8381203E+05   -1.2914151E+04   -1.2203698E+04    8.8381203E+05    1.2203691E+04    8.8452248E+05
   -3.00   700.000    7.273E+01    8.8332987E+05   -1.3420453E+04   -1.2722174E+04    8.8332986E+05    1.2722167E+04    8.8402814E+05
   -2.99   700.000    7.110E+01    8.8174211E+05   -1.3947303E+04   -1.3258511E+04    8.8174210E+05    1.3258504E+04    8.8243089E+05
   -2.98   700.000    6.943E+01    8.7910946E+05   -1.4482685E+04   -1.3800796E+04    8.7910945E+05    1.3800789E+04    8.7979134E+05
   -2.97   700.000    6.771E+01    8.7549884E+05   -1.5014164E+04   -1.4336850E+04    8.7549883E+05    1.4336844E+04    8.7617615E+05
   -2.96   700.000    6.595E+01    8.7098403E+05   -1.5529980E+04   -1.4855301E+04    8.7098402E+05    1.4855296E+04    8.7165870E+05
   -2.95   700.000    6.414E+01    8.6564585E+05   -1.6020049E+04   -1.5346553E+04    8.6564585E+05    1.5346548E+04    8.6631934E+05
   -2.94   700.000    6.228E+01    8.5957175E+05   -1.6476729E+04   -1.5803507E+04    8.5957174E+05    1.5803502E+04    8.6024496E+05
   -2.93   700.000    6.039E+01    8.5285456E+05   -1.6895215E+04   -1.6221911E+04    8.5285455E+05    1.6221906E+04    8.5352785E+05
   -2.92   700.000    5.847E+01    8.4559065E+05   -1.7273515E+04   -1.6600287E+04    8.4559064E+05    1.6600282E+04    8.4626387E+05
   -2.91   700.000    5.652E+01    8.3787732E+05   -1.7612011E+04   -1.6939451E+04    8.3787731E+05    1.6939446E+04    8.3854987E+05
   -2.90   700.000    5.455E+01    8.2980971E+05   -1.7912713E+04   -1.7241732E+04    8.2980970E+05    1.7241727E+04    8.3048068E+05
   -2.89   700.000    5.257E+01    8.2147716E+05   -1.8178331E+04   -1.7510033E+04    8.2147715E+05    1.7510028E+04    8.2214545E+05
   -2.88   700.000    5.059E+01    8.1295944E+05   -1.8411349E+04   -1.7746901E+04    8.1295943E+05    1.7746896E+04    8.1362387E+05
   -2.87   700.000    4.862E+01    8.0432296E+05   -1.8613238E+04   -1.7953751E+04    8.0432294E+05    1.7953746E+04    8.0498243E+05
   -2.86   700.000    4.666E+01    7.9561763E+05   -1.8783887E+04   -1.8130323E+04    7.9561762E+05    1.8130318E+04    7.9627118E+05
   -2.85   700.000    4.472E+01    7.8687474E+05   -1.8921297E+04   -1.8274401E+04    7.8687472E+05    1.8274396E+04    7.8752162E+05
   -2.84   700.000    4.282E+01    7.7810620E+05   -1.9021525E+04   -1.8381782E+04    7.7810619E+05    1.8381777E+04    7.7874593E+05
   -2.83   700.000    4.096E+01    7.6930538E+05   -1.9078835E+04   -1.8446455E+04    7.6930537E+05    1.8446449E+04    7.6993775E+05
   -2.82   700.000    3.914E+01    7.6044913E+05   -1.9086050E+04   -1.8460963E+04    7.6044912E+05    1.8460958E+04    7.6107421E+05
   -2.81   700.000    3.739E+01    7.5150056E+05   -1.9035066E+04   -1.8416934E+04    7.5150055E+05    1.8416929E+04    7.5211868E+05
   -2.80   700.000    3.569E+01    7.4241191E+05   -1.8917529E+04   -1.8305759E+04    7.4241190E+05    1.8305754E+04    7.4302367E+05
   -2.79   700.000    3.406E+01    7.3312699E+05   -1.8725652E+04   -1.8119413E+04    7.3312698E+05    1.8119408E+04    7.3373322E+05
   -2.78   700.000    3.250E+01    7.2358288E+05   -1.8453132E+04   -1.7851371E+04    7.2358287E+05    1.7851366E+04    7.2418463E+05
   -2.77   700.000    3.101E+01    7.1371101E+05   -1.8096088E+04   -1.7497547E+04    7.1371100E+05    1.7497542E+04    7.1430954E+05
   -2.76   700.000    2.959E+01    7.0343801E+05   -1.7653926E+04   -1.7057160E+04    7.0343800E+05    1.7057156E+04    7.0403476E+05
   -2.75   700.000    2.824E+01    6.9268678E+05   -1.7130001E+04   -1.6533397E+04    6.9268677E+05    1.6533394E+04    6.9328337E+05
   -2.74   700.000    2.697E+01    6.8137837E+05   -1.6531962E+04   -1.5933758E+04    6.8137836E+05    1.5933755E+04    6.8197656E+05
   -2.73   700.000    2.576E+01    6.6943483E+05   -1.5871677E+04   -1.5269981E+04    6.6943482E+05    1.5269978E+04    6.7003651E+05
   -2.72   700.000    2.463E+01    6.5678328E+05   -1.5164701E+04   -1.4557519E+04    6.5678327E+05    1.4557516E+04    6.5739046E+05
   -2.71   700.000    2.356E+01    6.4336109E+05   -1.4429316E+04   -1.3814576E+04    6.4336108E+05    1.3814574E+04    6.4397582E+05
   -2.70   700.000    2.255E+01    6.2912179E+05   -1.3685222E+04   -1.3060826E+04    6.2912178E+05    1.3060824E+04    6.2974617E+05
   -2.69   700.000    2.160E+01    6.1404141E+05   -1.2952058E+04   -1.2315939E+04    6.1404140E+05    1.2315937E+04    6.1467752E+05
   -2.68   700.000    2.070E+01    5.9812454E+05   -1.2247914E+04   -1.1598129E+04    5.9812453E+05    1.1598128E+04    5.9877431E+05
   -2.67   700.000    1.986E+01    5.8140932E+05   -1.1588057E+04   -1.0922900E+04    5.8140932E+05    1.0922899E+04    5.8207447E+05
   -2.66   700.000    1.906E+01    5.6397068E+05   -1.0984017E+04   -1.0302160E+04    5.6397067E+05    1.0302159E+04    5.6465253E+05
   -2.65   700.000    1.831E+01    5.4592095E+05   -1.0443157E+04   -9.7438006E+03    5.4592095E+05    9.7438001E+03    5.4662030E+05
   -2.64   700.000    1.760E+01    5.2740778E+05   -9.9687626E+03   -9.2517865E+03    5.2740777E+05    9.2517862E+03    5.2812475E+05
   -2.63   700.000    1.693E+01    5.0860890E+05   -9.5605964E+03   -8.8266813E+03    5.0860890E+05    8.8266812E+03    5.0934281E+05
   -2.62   700.000    1.630E+01    4.8972453E+05   -9.2157939E+03   -8.4664897E+03    4.8972453E+05    8.4664897E+03    4.9047383E+05
   -2.61   700.000    1.569E+01    4.7096771E+05   -8.9299093E+03   -8.1676294E+03    4.7096770E+05    8.1676296E+03    4.7172998E+05
   -2.60   700.000    1.512E+01    4.5255365E+05   -8.6979166E+03   -7.9258427E+03    4.5255365E+05    7.9258431E+03    4.5332572E+05
   -2.59   700.000    1.457E+01    4.3468898E+05   -8.5149894E+03   -7.7368846E+03    4.3468897E+05    7.7368851E+03    4.3546708E+05
   -2.58   700.000    1.404E+01    4.1756173E+05   -8.3769400E+03   -7.5968826E+03    4.1756173E+05    7.5968833E+03    4.1834179E+05
   -2.57   700.000    1.354E+01    4.0133309E+05   -8.2802745E+03   -7.5023394E+03    4.0133309E+05    7.5023402E+03    4.0211103E+05
   -2.56   700.000    1.306E+01    3.8613129E+05   -8.2218944E+03   -7.4498170E+03    3.8613129E+05    7.4498179E+03    3.8690337E+05
   -2.55   700.000    1.259E+01    3.7204818E+05   -8.1985357E+03   -7.4353978E+03    3.7204818E+05    7.4353989E+03    3.7281132E+05
   -2.54   700.000    1.214E+01    3.5913835E+05   -8.2060748E+03   -7.4540486E+03    3.5913835E+05    7.4540498E+03    3.5989037E+05
   -2.53   700.000    1.171E+01    3.4742036E+05   -8.2388447E+03   -7.4990224E+03    3.4742035E+05    7.4990238E+03    3.4816018E+05
   -2.52   700.000    1.130E+01    3.3687939E+05   -8.2890958E+03   -7.5614199E+03    3.3687939E+05    7.5614214E+03    3.3760706E+05
   -2.51   700.000    1.090E+01    3.2747051E+05   -8.3467031E+03   -7.6300007E+03    3.2747051E+05    7.6300024E+03    3.2818721E+05
   -2.50   700.000    1.051E+01    3.1912161E+05   -8.3991858E+03   -7.6912987E+03    3.1912160E+05    7.6913006E+03    3.1982949E+05
   -2.49   700.000    1.014E+01    3.1173571E+05   -8.4320634E+03   -7.7300551E+03    3.1173570E+05    7.7300572E+03    3.1243771E+05
   -2.48   700.000    9.783E+00    3.0519235E+05   -8.4295345E+03   -7.7299534E+03    3.0519234E+05    7.7299557E+03    3.0589192E+05
   -2.47   700.000    9.436E+00    2.9934855E+05   -8.3754400E+03   -7.6746135E+03    2.9934854E+05    7.6746158E+03    3.0004937E+05
   -2.46   700.000    9.102E+00    2.9403990E+05   -8.2544482E+03   -7.5487826E+03    2.9403989E+05    7.5487850E+03    2.9474555E+05
   -2.45   700.000    8.779E+00    2.8908274E+05   -8.0533715E+03   -7.3396379E+03    2.8908273E+05    7.3396403E+03    2.8979646E+05
   -2.44   700.000    8.468E+00    2.8427818E+05   -7.7624956E+03   -7.0380818E+03    2.8427817E+05    7.0380843E+03    2.8500259E+05
   -2.43   700.000    8.168E+00    2.7941839E+05   -7.3767677E+03   -6.6398837E+03    2.7941837E+05    6.6398862E+03    2.8015526E+05
   -2.42   700.000    7.879E+00    2.7429515E+05   -6.8966713E+03   -6.1464973E+03    2.7429514E+05    6.1464996E+03    2.7504531E+05
   -2.41   700.000    7.601E+00    2.6871022E+05   -6.3286255E+03   -5.5653983E+03    2.6871021E+05    5.5654006E+03    2.6947344E+05
   -2.40   700.000    7.333E+00    2.6248637E+05   -5.6848029E+03   -4.9098398E+03    2.6248636E+05    4.9098420E+03    2.6326132E+05
   -2.39   700.000    7.077E+00    2.5547796E+05   -4.9823488E+03   -4.1980111E+03    2.5547795E+05    4.1980131E+03    2.5626228E+05
   -2.38   700.000    6.831E+00    2.4757994E+05   -4.2420902E+03   -3.4516945E+03    2.4757993E+05    3.4516963E+03    2.4837032E+05
   -2.37   700.000    6.596E+00    2.3873426E+05   -3.4869105E+03   -2.6945959E+03    2.3873424E+05    2.6945975E+03    2.3952656E+05
   -2.36   700.000    6.372E+00    2.2893317E+05   -2.7400072E+03   -1.9505689E+03    2.2893315E+05    1.9505703E+03    2.2972259E+05
   -2.35   700.000    6.160E+00    2.1821926E+05   -2.0232432E+03   -1.2419422E+03    2.1821925E+05    1.2419434E+03    2.1900055E+05
   -2.34   700.000    5.959E+00    2.0668233E+05   -1.3557578E+03   -5.8811492E+02    2.0668232E+05    5.8811592E+02    2.0744996E+05
   -2.33   700.000    5.769E+00    1.9445337E+05   -7.5293931E+02   -4.5211483E+00    1.9445336E+05    4.5219741E+00    1.9520178E+05
   -2.32   700.000    5.591E+00    1.8169628E+05   -2.2580592E+02    4.9799102E+02    1.8169627E+05   -4.9799035E+02    1.8242007E+05
   -2.31   700.000    5.425E+00    1.6859784E+05    2.1920827E+02    9.1336673E+02    1.6859783E+05   -9.1336619E+02    1.6929199E+05
   -2.30   700.000    5.271E+00    1.5535671E+05    5.8009800E+02    1.2401724E+03    1.5535669E+05   -1.2401719E+03    1.5601677E+05
   -2.29   700.000    5.128E+00    1.4217236E+05    8.5882486E+02    1.4811050E+03    1.4217235E+05   -1.4811047E+03    1.4279463E+05
   -2.28   700.000    4.998E+00    1.2923474E+05    1.0606295E+03    1.6422644E+03    1.2923473E+05   -1.6422641E+03    1.2981636E+05
   -2.27   700.000    4.878E+00    1.1671541E+05    1.1932094E+03    1.7322808E+03    1.1671541E+05   -1.7322806E+03    1.1725448E+05
   -2.26   700.000    4.769E+00    1.0476092E+05    1.2658542E+03    1.7613961E+03    1.0476091E+05   -1.7613959E+03    1.0525645E+05
   -2.25   700.000    4.671E+00    9.3488437E+04    1.2886205E+03    1.7405845E+03    9.3488430E+04   -1.7405845E+03    9.3940394E+04
   -2.24   700.000    4.583E+00    8.2984062E+04    1.2716113E+03    1.6807860E+03    8.2984056E+04   -1.6807860E+03    8.3393231E+04
   -2.23   700.000    4.503E+00    7.3303248E+04    1.2244006E+03    1.5922952E+03    7.3303243E+04   -1.5922951E+03    7.3671138E+04
   -2.22   700.000    4.433E+00    6.4473144E+04    1.1556239E+03    1.4843296E+03    6.4473139E+04   -1.4843296E+03    6.4801845E+04
   -2.21   700.000    4.370E+00    5.6496222E+04    1.0727296E+03    1.3647738E+03    5.6496218E+04   -1.3647738E+03    5.6788262E+04
   -2.20   700.000    4.314E+00    4.9354686E+04    9.8187395E+02    1.2400776E+03    4.9354682E+04   -1.2400776E+03    4.9612886E+04
   -2.19   700.000    4.264E+00    4.3015136E+04    8.8793147E+02    1.1152797E+03    4.3015133E+04   -1.1152797E+03    4.3242481E+04
   -2.18   700.000    4.219E+00    3.7433116E+04    7.9458635E+02    9.9411859E+02    3.7433114E+04   -9.9411860E+02    3.7632646E+04
   -2.17   700.000    4.179E+00    3.2557228E+04    7.0447519E+02    8.7919657E+02    3.2557225E+04   -8.7919659E+02    3.2731947E+04
   -2.16   700.000    4.144E+00    2.8332673E+04    6.1935337E+02    7.7216875E+02    2.8332672E+04   -7.7216876E+02    2.8485487E+04
   -2.15   700.000    4.111E+00    2.4704144E+04    5.4026469E+02    6.7393317E+02    2.4704142E+04   -6.7393318E+02    2.4837811E+04
   -2.14   700.000    4.081E+00    2.1618059E+04    4.6770017E+02    5.8480776E+02    2.1618057E+04   -5.8480777E+02    2.1735165E+04
   -2.13   700.000    4.052E+00    1.9024226E+04    4.0173794E+02    5.0468510E+02    1.9024225E+04   -5.0468511E+02    1.9127172E+04
   -2.12   700.000    4.025E+00    1.6876991E+04    3.4216045E+02    4.3316144E+02    1.6876990E+04   -4.3316145E+02    1.6967991E+04
   -2.11   700.000    3.998E+00    1.5135978E+04    2.8854878E+02    3.6963972E+02    1.5135977E+04   -3.6963973E+02    1.5217068E+04
   -2.10   700.000    3.972E+00    1.3766511E+04    2.4035570E+02    3.1340890E+02    1.3766511E+04   -3.1340890E+02    1.3839564E+04
   -2.09   700.000    3.944E+00    1.2739791E+04    1.9696033E+02    2.6370256E+02    1.2739791E+04   -2.6370257E+02    1.2806533E+04
   -2.08   700.000    3.916E+00    1.2032900E+04    1.5770767E+02    2.1974070E+02    1.2032900E+04   -2.1974070E+02    1.2094933E+04
   -2.07   700.000    3.885E+00    1.1628672E+04    1.2193620E+02    1.8075807E+02    1.1628673E+04   -1.8075807E+02    1.1687494E+04
   -2.06   700.000    3.852E+00    1.1515476E+04    8.8996493E+01    1.4602243E+02    1.1515477E+04   -1.4602243E+02    1.1572503E+04
   -2.05   700.000    3.815E+00    1.1686919E+04    5.8263657E+01    1.1484549E+02    1.1686920E+04   -1.1484548E+02    1.1743502E+04
   -2.04   700.000    3.775E+00    1.2141485E+04    2.9145542E+01    8.6588704E+01    1.2141486E+04   -8.6588692E+01    1.2198930E+04
   -2.03   700.000    3.729E+00    1.2882105E+04    1.0888165E+00    6.0666027E+01    1.2882106E+04   -6.0666010E+01    1.2941683E+04
   -2.02   700.000    3.678E+00    1.3915651E+04   -2.6415734E+01    3.6544825E+01    1.3915653E+04   -3.6544802E+01    1.3978614E+04
   -2.01   700.000    3.621E+00    1.5252361E+04   -5.3827458E+01    1.3746257E+01    1.5252363E+04   -1.3746226E+01    1.5319937E+04
   -2.00   700.000    3.556E+00    1.6905165E+04   -8.1548833E+01   -8.1541855E+00    1.6905167E+04    8.1542273E+00    1.6978562E+04
   -1.99   700.000    3.484E+00    1.8888960E+04   -1.0991676E+02   -2.9525435E+01    1.8888962E+04    2.9525489E+01    1.8969354E+04
   -1.98   700.000    3.403E+00    2.1219836E+04   -1.3919215E+02   -5.0678724E+01    2.1219839E+04    5.0678794E+01    2.1308353E+04
   -1.97   700.000    3.313E+00    2.3914321E+04   -1.6954838E+02   -7.1864701E+01    2.3914325E+04    7.1864792E+01    2.4012009E+04
   -1.96   700.000    3.213E+00    2.6988713E+04   -2.0105958E+02   -9.3270226E+01    2.6988717E+04    9.3270340E+01    2.7096507E+04
   -1.95   700.000    3.103E+00    3.0458612E+04   -2.3369063E+02   -1.1501557E+02    3.0458616E+04    1.1501571E+02    3.0577291E+04
   -1.94   700.000    2.984E+00    3.4338751E+04   -2.6729076E+02   -1.3715295E+02    3.4338755E+04    1.3715313E+02    3.4468893E+04
   -1.93   700.000    2.854E+00    3.8643240E+04   -3.0159313E+02   -1.5966746E+02    3.8643245E+04    1.5966768E+02    3.8785171E+04
   -1.92   700.000    2.715E+00    4.3386285E+04   -3.3622257E+02   -1.8248114E+02    4.3386291E+04    1.8248140E+02    4.3540032E+04
   -1.91   700.000    2.568E+00    4.8583400E+04   -3.7071271E+02   -2.0546083E+02    4.8583406E+04    2.0546114E+02    4.8748658E+04
   -1.90   700.000    2.412E+00    5.4253048E+04   -4.0453304E+02   -2.2842983E+02    5.4253054E+04    2.2843019E+02    5.4429157E+04
   -1.89   700.000    2.249E+00    6.0418561E+04   -4.3712455E+02   -2.5118271E+02    6.0418568E+04    2.5118312E+02    6.0604510E+04
   -1.88   700.000    2.081E+00    6.7110134E+04   -4.6794152E+02   -2.7350231E+02    6.7110141E+04    2.7350277E+02    6.7304581E+04
   -1.87   700.000    1.908E+00    7.4366603E+04   -4.9649522E+02   -2.9517737E+02    7.4366611E+04    2.9517787E+02    7.4567929E+04
   -1.86   700.000    1.732E+00    8.2236760E+04   -5.2239470E+02   -3.1601886E+02    8.2236768E+04    3.1601940E+02    8.2443144E+04
   -1.85   700.000    1.555E+00    9.0779933E+04   -5.4537928E+02   -3.3587324E+02    9.0779942E+04    3.3587381E+02    9.0989448E+04
   -1.84   700.000    1.377E+00    1.0006567E+05   -5.6533788E+02   -3.5463043E+02    1.0006568E+05    3.5463100E+02    1.0027639E+05
   -1.83   700.000    1.200E+00    1.1017244E+05   -5.8231169E+02   -3.7222485E+02    1.1017245E+05    3.7222542E+02    1.1038254E+05
   -1.82   700.000    1.026E+00    1.2118531E+05   -5.9647889E+02   -3.8862860E+02    1.2118532E+05    3.8862914E+02    1.2139317E+05
   -1.81   700.000    8.537E-01    1.3319286E+05   -6.0812279E+02   -4.0383638E+02    1.3319287E+05    4.0383688E+02    1.3339715E+05
   -1.80   700.000    6.853E-01    1.4628341E+05   -6.1758718E+02   -4.1784362E+02    1.4628342E+05    4.1784406E+02    1.4648316E+05
   -1.79   700.000    5.208E-01    1.6054107E+05   -6.2522468E+02   -4.3061961E+02    1.6054108E+05    4.3061998E+02    1.6073568E+05
   -1.78   700.000    3.606E-01    1.7604186E+05   -6.3134441E+02   -4.4207855E+02    1.7604187E+05    4.4207885E+02    1.7623114E+05
   -1.77   700.000    2.048E-01    1.9285045E+05   -6.3616415E+02   -4.5205103E+02    1.9285046E+05    4.5205126E+02    1.9303458E+05
   -1.76   700.000    5.315E-02    2.1101782E+05   -6.3977079E+02   -4.6025807E+02    2.1101784E+05    4.6025825E+02    2.1119735E+05
   -1.75   700.000   -9.444E-02    2.3058015E+05   -6.4209064E+02   -4.6628935E+02    2.3058016E+05    4.6628949E+02    2.3075596E+05
   -1.74   700.000   -2.383E-01    2.5155897E+05   -6.4287016E+02   -4.6958681E+02    2.5155898E+05    4.6958696E+02    2.5173226E+05
   -1.73   700.000   -3.790E-01    2.7396251E+05   -6.4166740E+02   -4.6943562E+02    2.7396253E+05    4.6943583E+02    2.7413476E+05
   -1.72   700.000   -5.169E-01    2.9778784E+05   -6.3785557E+02   -4.6496523E+02    2.9778786E+05    4.6496558E+02    2.9796075E+05
   -1.71   700.000   -6.525E-01    3.2302309E+05   -6.3064186E+02   -4.5516464E+02    3.2302310E+05    4.5516520E+02    3.2319858E+05
   -1.70   700.000   -7.864E-01    3.4964929E+05   -6.1910622E+02   -4.3891683E+02    3.4964930E+05    4.3891771E+02    3.4982949E+05
   -1.69   700.000   -9.191E-01    3.7764104E+05   -6.0226508E+02   -4.1505737E+02    3.7764106E+05    4.1505868E+02    3.7782827E+05
   -1.68   700.000   -1.051E+00    4.0696571E+05   -5.7916425E+02   -3.8246058E+02    4.0696573E+05    3.8246245E+02    4.0716243E+05
   -1.67   700.000   -1.183E+00    4.3758110E+05   -5.4900180E+02   -3.4015394E+02    4.3758112E+05    3.4015650E+02    4.3778997E+05
   -1.66   700.000   -1.315E+00    4.6943215E+05   -5.1127738E+02   -2.8745680E+02    4.6943217E+05    2.8746017E+02    4.6965599E+05
   -1.65   700.000   -1.448E+00    5.0244738E+05   -4.6595856E+02   -2.2413476E+02    5.0244740E+05    2.2413909E+02    5.0268922E+05
   -1.64   700.000   -1.581E+00    5.3653622E+05   -4.1364899E+02   -1.5055609E+02    5.3653624E+05    1.5056149E+02    5.3679933E+05
   -1.63   700.000   -1.716E+00    5.7158816E+05   -3.5573878E+02   -6.7832566E+01    5.7158819E+05    6.7839160E+01    5.7187609E+05
   -1.62   700.000   -1.853E+00    6.0747425E+05   -2.9451500E+02    2.2074358E+01    6.0747428E+05   -2.2066491E+01    6.0779086E+05
   -1.61   700.000   -1.991E+00    6.4405104E+05   -2.3321038E+02    1.1630129E+02    6.4405107E+05   -1.1629210E+02    6.4440058E+05
   -1.60   700.000   -2.131E+00    6.8116630E+05   -1.7597111E+02    2.1110160E+02    6.8116632E+05   -2.1109106E+02    6.8155340E+05
   -1.59   700.000   -2.273E+00    7.1866530E+05   -1.2772872E+02    3.0194856E+02    7.1866533E+05   -3.0193671E+02    7.1909501E+05
   -1.58   700.000   -2.418E+00    7.5639628E+05   -9.3968756E+01    3.8373117E+02    7.5639631E+05   -3.8371808E+02    7.5687401E+05
   -1.57   700.000   -2.565E+00    7.9421353E+05   -8.0398641E+01    4.5104157E+02    7.9421356E+05   -4.5102737E+02    7.9474500E+05
   -1.56   700.000   -2.714E+00    8.3197746E+05   -9.2533113E+01    4.9853985E+02    8.3197750E+05   -4.9852470E+02    8.3256857E+05
   -1.55   700.000   -2.866E+00    8.6955128E+05   -1.3523436E+02    5.2136356E+02    8.6955132E+05   -5.2134767E+02    8.7020791E+05
   -1.54   700.000   -3.021E+00    9.0679500E+05   -2.1226368E+02    5.1553147E+02    9.0679505E+05   -5.1551509E+02    9.0752284E+05
   -1.53   700.000   -3.178E+00    9.4355848E+05   -3.2591298E+02    4.7827981E+02    9.4355853E+05   -4.7826320E+02    9.4436272E+05
   -1.52   700.000   -3.339E+00    9.7967521E+05   -4.7678042E+02    4.0827302E+02    9.7967525E+05   -4.0825646E+02    9.8056030E+05
   -1.51   700.000   -3.502E+00    1.0149591E+06   -6.6373073E+02    3.0565378E+02    1.0149592E+06   -3.0563758E+02    1.0159286E+06
   -1.50   700.000   -3.668E+00    1.0492061E+06   -8.8404109E+02    1.7193353E+02    1.0492062E+06   -1.7191798E+02    1.0502621E+06
   -1.49   700.000   -3.836E+00    1.0822008E+06   -1.1336914E+03    9.7627358E+00    1.0822008E+06   -9.7481180E+00    1.0833443E+06
   -1.48   700.000   -4.008E+00    1.1137284E+06   -1.4077283E+03   -1.7735567E+02    1.1137284E+06    1.7736910E+02    1.1149588E+06
   -1.47   700.000   -4.183E+00    1.1435908E+06   -1.7006299E+03   -3.8534716E+02    1.1435908E+06    3.8535917E+02    1.1449061E+06
   -1.46   700.000   -4.360E+00    1.1716234E+06   -2.0066191E+03   -6.0980264E+02    1.1716235E+06    6.0981305E+02    1.1730203E+06
   -1.45   700.000   -4.541E+00    1.1977118E+06   -2.3199107E+03   -8.4616766E+02    1.1977119E+06    8.4617633E+02    1.1991856E+06
   -1.44   700.000   -4.724E+00    1.2218042E+06   -2.6349081E+03   -1.0899042E+03    1.2218042E+06    1.0899111E+03    1.2233492E+06
   -1.43   700.000   -4.910E+00    1.2439181E+06   -2.9463724E+03   -1.3366469E+03    1.2439181E+06    1.3366519E+03    1.2455278E+06
   -1.42   700.000   -5.098E+00    1.2641412E+06   -3.2495750E+03   -1.5823510E+03    1.2641413E+06    1.5823542E+03    1.2658085E+06
   -1.41   700.000   -5.290E+00    1.2826249E+06   -3.5404113E+03   -1.8233991E+03    1.2826250E+06    1.8234006E+03    1.2843420E+06
   -1.40   700.000   -5.484E+00    1.2995728E+06   -3.8154320E+03   -2.0566064E+03    1.2995728E+06    2.0566065E+03    1.3013316E+06
   -1.39   700.000   -5.680E+00    1.3152265E+06   -4.0717400E+03   -2.2790731E+03    1.3152265E+06    2.2790718E+03    1.3170192E+06
   -1.38   700.000   -5.879E+00    1.3298516E+06   -4.3067278E+03   -2.4878626E+03    1.3298517E+06    2.4878603E+03    1.3316705E+06
   -1.37   700.000   -6.081E+00    1.3437258E+06   -4.5176703E+03   -2.6795432E+03    1.3437259E+06    2.6795402E+03    1.3455640E+06
   -1.36   700.000   -6.286E+00    1.3571311E+06   -4.7012443E+03   -2.8496859E+03    1.3571312E+06    2.8496825E+03    1.3589827E+06
   -1.35   700.000   -6.493E+00    1.3703509E+06   -4.8530809E+03   -2.9924483E+03    1.3703510E+06    2.9924449E+03    1.3722116E+06
   -1.34   700.000   -6.703E+00    1.3836706E+06   -4.9674741E+03   -3.1003778E+03    1.3836706E+06    3.1003747E+03    1.3855377E+06
   -1.33   700.000   -6.916E+00    1.3973796E+06   -5.0373393E+03   -3.1645257E+03    1.3973797E+06    3.1645232E+03    1.3992525E+06
   -1.32   700.000   -7.133E+00    1.4117736E+06   -5.0544656E+03   -3.1748961E+03    1.4117737E+06    3.1748945E+03    1.4136532E+06
   -1.31   700.000   -7.351E+00    1.4271532E+06   -5.0100313E+03   -3.1211711E+03    1.4271532E+06    3.1211707E+03    1.4290421E+06
   -1.30   700.000   -7.573E+00    1.4438196E+06   -4.8952974E+03   -2.9935919E+03    1.4438197E+06    2.9935930E+03    1.4457214E+06
   -1.29   700.000   -7.798E+00    1.4620676E+06   -4.7023658E+03   -2.7838516E+03    1.4620676E+06    2.7838545E+03    1.4639861E+06
   -1.28   700.000   -8.026E+00    1.4821751E+06   -4.4249011E+03   -2.4858744E+03    1.4821752E+06    2.4858792E+03    1.4841142E+06
   -1.27   700.000   -8.256E+00    1.5043938E+06   -4.0587575E+03   -2.0964067E+03    1.5043938E+06    2.0964136E+03    1.5063562E+06
   -1.26   700.000   -8.489E+00    1.5289395E+06   -3.6024957E+03   -1.6154068E+03    1.5289395E+06    1.6154160E+03    1.5309266E+06
   -1.25   700.000   -8.725E+00    1.5559855E+06   -3.0578087E+03   -1.0462625E+03    1.5559856E+06    1.0462742E+03    1.5579971E+06
   -1.24   700.000   -8.963E+00    1.5856580E+06   -2.4298721E+03   -3.9588114E+02    1.5856580E+06    3.9589531E+02    1.5876920E+06
   -1.23   700.000   -9.203E+00    1.6180320E+06   -1.7276146E+03    3.2531555E+02    1.6180320E+06   -3.2529888E+02    1.6200850E+06
   -1.22   700.000   -9.446E+00    1.6531289E+06   -9.6387048E+02    1.1034832E+03    1.6531290E+06   -1.1034641E+03    1.6551963E+06
   -1.21   700.000   -9.691E+00    1.6909128E+06   -1.5535354E+02    1.9215531E+03    1.6909129E+06   -1.9215317E+03    1.6929898E+06
   -1.20   700.000   -9.939E+00    1.7312847E+06    6.7761083E+02    2.7595677E+03    1.7312848E+06   -2.7595442E+03    1.7333667E+06
   -1.19   700.000   -1.019E+01    1.7740754E+06    1.5116378E+03    3.5951817E+03    1.7740755E+06   -3.5951564E+03    1.7761590E+06
   -1.18   700.000   -1.044E+01    1.8190362E+06    2.3211238E+03    4.4043422E+03    1.8190363E+06   -4.4043153E+03    1.8211195E+06
   -1.17   700.000   -1.070E+01    1.8658291E+06    3.0793391E+03    5.1621367E+03    1.8658291E+06   -5.1621086E+03    1.8679119E+06
   -1.16   700.000   -1.096E+01    1.9140187E+06    3.7596972E+03    5.8437749E+03    1.9140188E+06   -5.8437460E+03    1.9161029E+06
   -1.15   700.000   -1.122E+01    1.9630702E+06    4.3370998E+03    6.4256480E+03    1.9630703E+06   -6.4256187E+03    1.9651588E+06
   -1.14   700.000   -1.148E+01    2.0123554E+06    4.7892396E+03    6.8863902E+03    2.0123554E+06   -6.8863608E+03    2.0144525E+06
   -1.13   700.000   -1.175E+01    2.0611719E+06    5.0977408E+03    7.2078573E+03    2.0611719E+06   -7.2078281E+03    2.0632821E+06
   -1.12   700.000   -1.202E+01    2.1087768E+06    5.2490321E+03    7.3759416E+03    2.1087768E+06   -7.3759130E+03    2.1109037E+06
   -1.11   700.000   -1.229E+01    2.1544317E+06    5.2348805E+03    7.3811632E+03    2.1544317E+06   -7.3811354E+03    2.1565780E+06
   -1.10   700.000   -1.257E+01    2.1974583E+06    5.0525720E+03    7.2190217E+03    2.1974583E+06   -7.2189948E+03    2.1996248E+06
   -1.09   700.000   -1.285E+01    2.2372947E+06    4.7047921E+03    6.8901426E+03    2.2372947E+06   -6.8901170E+03    2.2394801E+06
   -1.08   700.000   -1.313E+01    2.2735471E+06    4.1993110E+03    6.4002910E+03    2.2735471E+06   -6.4002668E+03    2.2757481E+06
   -1.07   700.000   -1.342E+01    2.3060282E+06    3.5485976E+03    5.7603294E+03    2.3060282E+06   -5.7603067E+03    2.3082400E+06
   -1.06   700.000   -1.371E+01    2.3347767E+06    2.7694569E+03    4.9861608E+03    2.3347767E+06   -4.9861397E+03    2.3369934E+06
   -1.05   700.000   -1.400E+01    2.3600546E+06    1.8827115E+03    4.0986284E+03    2.3600546E+06   -4.0986091E+03    2.3622705E+06
   -1.04   700.000   -1.430E+01    2.3823218E+06    9.1287272E+02    3.1232792E+03    2.3823218E+06   -3.1232619E+03    2.3845322E+06
   -1.03   700.000   -1.459E+01    2.4021903E+06   -1.1231078E+02    2.0898650E+03    2.4021903E+06   -2.0898497E+03    2.4043925E+06
   -1.02   700.000   -1.489E+01    2.4203621E+06   -1.1625327E+03    1.0314840E+03    2.4203621E+06   -1.0314708E+03    2.4225561E+06
   -1.01   700.000   -1.520E+01    2.4375582E+06   -2.2058828E+03   -1.6649984E+01    2.4375582E+06    1.6661185E+01    2.4397474E+06
   -1.00   700.000   -1.550E+01    2.4544463E+06   -3.2100213E+03   -1.0187142E+03    2.4544463E+06    1.0187233E+03    2.4566376E+06
   -0.99   700.000   -1.581E+01    2.4715748E+06   -4.1434274E+03   -1.9398645E+03    2.4715748E+06    1.9398717E+03    2.4737784E+06
   -0.98   700.000   -1.612E+01    2.4893226E+06   -4.9765323E+03   -2.7476744E+03    2.4893226E+06    2.7476798E+03    2.4915514E+06
   -0.97   700.000   -1.643E+01    2.5078698E+06   -5.6825761E+03   -3.4132341E+03    2.5078698E+06    3.4132377E+03    2.5101391E+06
   -0.96   700.000   -1.675E+01    2.5271947E+06   -6.2381326E+03   -3.9118375E+03    2.5271947E+06    3.9118396E+03    2.5295210E+06
   -0.95   700.000   -1.706E+01    2.5470974E+06   -6.6233874E+03   -4.2233335E+03    2.5470974E+06    4.2233343E+03    2.5494974E+06
   -0.94   700.000   -1.739E+01    2.5672470E+06   -6.8223731E+03   -4.3323475E+03    2.5672470E+06    4.3323472E+03    2.5697370E+06
   -0.93   700.000   -1.771E+01    2.5872480E+06   -6.8234127E+03   -4.2286270E+03    2.5872480E+06    4.2286258E+03    2.5898427E+06
   -0.92   700.000   -1.804E+01    2.6067152E+06   -6.6199483E+03   -3.9077008E+03    2.6067152E+06    3.9076988E+03    2.6094274E+06
   -0.91   700.000   -1.837E+01    2.6253495E+06   -6.2117669E+03   -3.3718794E+03    2.6253495E+06    3.3718767E+03    2.6281893E+06
   -0.90   700.000   -1.871E+01    2.6430029E+06   -5.6064180E+03   -2.6314160E+03    2.6430029E+06    2.6314129E+03    2.6459779E+06
   -0.89   700.000   -1.905E+01    2.6597258E+06   -4.8204416E+03   -1.7054755E+03    2.6597258E+06    1.7054719E+03    2.6628408E+06
   -0.88   700.000   -1.940E+01    2.6757880E+06   -3.8799484E+03   -6.2248894E+02    2.6757880E+06    6.2248492E+02    2.6790455E+06
   -0.87   700.000   -1.974E+01    2.6916730E+06   -2.8201702E+03    5.8045641E+02    2.6916730E+06   -5.8046082E+02    2.6950736E+06
   -0.86   700.000   -2.010E+01    2.7080443E+06   -1.6837974E+03    1.8593523E+03    2.7080443E+06   -1.8593571E+03    2.7115875E+06
   -0.85   700.000   -2.045E+01    2.7256887E+06   -5.1819653E+02    3.1660269E+03    2.7256887E+06   -3.1660321E+03    2.7293729E+06
   -0.84   700.000   -2.081E+01    2.7454439E+06    6.2813117E+02    4.4515741E+03    2.7454440E+06   -4.4515797E+03    2.7492674E+06
   -0.83   700.000   -2.118E+01    2.7681204E+06    1.7093081E+03    5.6699363E+03    2.7681204E+06   -5.6699423E+03    2.7720811E+06
   -0.82   700.000   -2.155E+01    2.7944260E+06    2.6854637E+03    6.7810894E+03    2.7944260E+06   -6.7810959E+03    2.7985216E+06
   -0.81   700.000   -2.192E+01    2.8249031E+06    3.5252494E+03    7.7533731E+03    2.8249031E+06   -7.7533801E+03    2.8291313E+06
   -0.80   700.000   -2.229E+01    2.8598842E+06    4.2071938E+03    8.5647120E+03    2.8598843E+06   -8.5647195E+03    2.8642418E+06
   -0.79   700.000   -2.268E+01    2.8994684E+06    4.7198562E+03    9.2027092E+03    2.8994684E+06   -9.2027174E+03    2.9039513E+06
   -0.78   700.000   -2.306E+01    2.9435194E+06    5.0609606E+03    9.6638018E+03    2.9435195E+06   -9.6638108E+03    2.9481223E+06
   -0.77   700.000   -2.345E+01    2.9916826E+06    5.2358259E+03    9.9517911E+03    2.9916826E+06   -9.9518011E+03    2.9963986E+06
   -0.76   700.000   -2.385E+01    3.0434157E+06    5.2554495E+03    1.0076088E+04    3.0434157E+06   -1.0076099E+04    3.0482364E+06
   -0.75   700.000   -2.425E+01    3.0980298E+06    5.1345505E+03    1.0049954E+04    3.0980298E+06   -1.0049966E+04    3.1029452E+06
   -0.74   700.000   -2.466E+01    3.1547340E+06    4.8897886E+03    9.8889234E+03    3.1547340E+06   -9.8889370E+03    3.1597331E+06
   -0.73   700.000   -2.507E+01    3.2126813E+06    4.5382953E+03    9.6095186E+03    3.2126814E+06   -9.6095337E+03    3.2177526E+06
   -0.72   700.000   -2.548E+01    3.2710115E+06    4.0966018E+03    9.2282961E+03    3.2710116E+06   -9.2283127E+03    3.2761433E+06
   -0.71   700.000   -2.590E+01    3.3288889E+06    3.5800275E+03    8.7612785E+03    3.3288890E+06   -8.7612968E+03    3.3340702E+06
   -0.70   700.000   -2.633E+01    3.3855348E+06    3.0025747E+03    8.2237948E+03    3.3855348E+06   -8.2238148E+03    3.3907560E+06
   -0.69   700.000   -2.676E+01    3.4402522E+06    2.3773247E+03    7.6307292E+03    3.4402522E+06   -7.6307509E+03    3.4455056E+06
   -0.68   700.000   -2.719E+01    3.4924446E+06    1.7172471E+03    6.9971108E+03    3.4924446E+06   -6.9971341E+03    3.4977245E+06
   -0.67   700.000   -2.763E+01    3.5416260E+06    1.0362268E+03    6.3388842E+03    3.5416260E+06   -6.3389092E+03    3.5469287E+06
   -0.66   700.000   -2.807E+01    3.5874244E+06    3.5002625E+02    5.6736269E+03    3.5874245E+06   -5.6736535E+03    3.5927481E+06
   -0.65   700.000   -2.851E+01    3.6295781E+06   -3.2312523E+02    5.0209495E+03    3.6295781E+06   -5.0209776E+03    3.6349222E+06
   -0.64   700.000   -2.896E+01    3.6679265E+06   -9.6256167E+02    4.4023674E+03    3.6679265E+06   -4.4023969E+03    3.6732915E+06
   -0.63   700.000   -2.941E+01    3.7023990E+06   -1.5459366E+03    3.8405481E+03    3.7023990E+06   -3.8405789E+03    3.7077855E+06
   -0.62   700.000   -2.986E+01    3.7330018E+06   -2.0506263E+03    3.3579999E+03    3.7330018E+06   -3.3580318E+03    3.7384105E+06
   -0.61   700.000   -3.032E+01    3.7598083E+06   -2.4555337E+03    2.9754156E+03    3.7598083E+06   -2.9754484E+03    3.7652393E+06
   -0.60   700.000   -3.078E+01    3.7829511E+06   -2.7429466E+03    2.7099738E+03    3.7829511E+06   -2.7100074E+03    3.7884040E+06
   -0.59   700.000   -3.123E+01    3.8026176E+06   -2.9001121E+03    2.5739023E+03    3.8026176E+06   -2.5739363E+03    3.8080916E+06
   -0.58   700.000   -3.169E+01    3.8190477E+06   -2.9202888E+03    2.5735215E+03    3.8190477E+06   -2.5735556E+03    3.8245415E+06
   -0.57   700.000   -3.215E+01    3.8325299E+06   -2.8031943E+03    2.7088552E+03    3.8325299E+06   -2.7088892E+03    3.8380420E+06
   -0.56   700.000   -3.261E+01    3.8433960E+06   -2.5549111E+03    2.9737660E+03    3.8433960E+06   -2.9737995E+03    3.8489247E+06
   -0.55   700.000   -3.307E+01    3.8520110E+06   -2.1874047E+03    3.3564855E+03    3.8520110E+06   -3.3565181E+03    3.8575549E+06
   -0.54   700.000   -3.353E+01    3.8587587E+06   -1.7178291E+03    3.8403863E+03    3.8587587E+06   -3.8404178E+03    3.8643169E+06
   -0.53   700.000   -3.399E+01    3.8640239E+06   -1.1677511E+03    4.4048662E+03    3.8640239E+06   -4.4048964E+03    3.8695965E+06
   -0.52   700.000   -3.445E+01    3.8681721E+06   -5.6236496E+02    5.0262566E+03    3.8681721E+06   -5.0262852E+03    3.8737608E+06
   -0.51   700.000   -3.491E+01    3.8715320E+06    7.0296340E+01    5.6787147E+03    3.8715320E+06   -5.6787416E+03    3.8771404E+06
   -0.50   700.000   -3.537E+01    3.8743799E+06    7.0018329E+02    6.3350904E+03    3.8743799E+06   -6.3351155E+03    3.8800148E+06
   -0.49   700.000   -3.583E+01    3.8769329E+06    1.2961337E+03    6.9677756E+03    3.8769329E+06   -6.9677990E+03    3.8826045E+06
   -0.48   700.000   -3.629E+01    3.8793472E+06    1.8269010E+03    7.5495600E+03    3.8793472E+06   -7.5495818E+03    3.8850699E+06
   -0.47   700.000   -3.675E+01    3.8817260E+06    2.2623305E+03    8.0545152E+03    3.8817260E+06   -8.0545355E+03    3.8875182E+06
   -0.46   700.000   -3.721E+01    3.8841310E+06    2.5746750E+03    8.4589273E+03    3.8841310E+06   -8.4589463E+03    3.8900153E+06
   -0.45   700.000   -3.767E+01    3.8865987E+06    2.7399990E+03    8.7422735E+03    3.8865988E+06   -8.7422915E+03    3.8926010E+06
   -0.44   700.000   -3.812E+01    3.8891561E+06    2.7395743E+03    8.8882041E+03    3.8891562E+06   -8.8882212E+03    3.8953048E+06
   -0.43   700.000   -3.857E+01    3.8918346E+06    2.5611280E+03    8.8854453E+03    3.8918346E+06   -8.8854618E+03    3.8981590E+06
   -0.42   700.000   -3.902E+01    3.8946813E+06    2.1997786E+03    8.7285084E+03    3.8946813E+06   -8.7285245E+03    3.9012100E+06
   -0.41   700.000   -3.947E+01    3.8977668E+06    1.6585169E+03    8.4180827E+03    3.8977668E+06   -8.4180985E+03    3.9045263E+06
   -0.40   700.000   -3.992E+01    3.9011908E+06    9.4814741E+02    7.9610363E+03    3.9011908E+06   -7.9610517E+03    3.9082037E+06
   -0.39   700.000   -4.037E+01    3.9050852E+06    8.6713096E+01    7.3700329E+03    3.9050852E+06   -7.3700480E+03    3.9123685E+06
   -0.38   700.000   -4.081E+01    3.9096135E+06   -9.0145965E+02    6.6628736E+03    3.9096135E+06   -6.6628883E+03    3.9171779E+06
   -0.37   700.000   -4.125E+01    3.9149672E+06   -1.9868864E+03    5.8617371E+03    3.9149672E+06   -5.8617512E+03    3.9228159E+06
   -0.36   700.000   -4.169E+01    3.9213541E+06   -3.1360112E+03    4.9924864E+03    3.9213541E+06   -4.9924997E+03    3.9294826E+06
   -0.35   700.000   -4.212E+01    3.9289794E+06   -4.3121327E+03    4.0841238E+03    3.9289794E+06   -4.0841362E+03    3.9373757E+06
   -0.34   700.000   -4.255E+01    3.9380184E+06   -5.4761865E+03    3.1683376E+03    3.9380184E+06   -3.1683487E+03    3.9466629E+06
   -0.33   700.000   -4.298E+01    3.9485834E+06   -6.5875325E+03    2.2789577E+03    3.9485834E+06   -2.2789672E+03    3.9574499E+06
   -0.32   700.000   -4.341E+01    3.9606893E+06   -7.6049710E+03    1.4510784E+03    3.9606893E+06   -1.4510862E+03    3.9697453E+06
   -0.31   700.000   -4.383E+01    3.9742234E+06   -8.4881984E+03    7.1963748E+02    3.9742235E+06   -7.1964324E+02    3.9834313E+06
   -0.30   700.000   -4.426E+01    3.9889266E+06   -9.1998248E+03    1.1735930E+02    3.9889266E+06   -1.1736285E+02    3.9982438E+06
   -0.29   700.000   -4.468E+01    4.0043888E+06   -9.7079330E+03   -3.2786097E+02    4.0043888E+06    3.2785978E+02    4.0137689E+06
   -0.28   700.000   -4.510E+01    4.0200642E+06   -9.9889891E+03   -5.9587345E+02    4.0200643E+06    5.9587469E+02    4.0294574E+06
   -0.27   700.000   -4.552E+01    4.0353036E+06   -1.0030752E+04   -6.7707192E+02    4.0353036E+06    6.7707561E+02    4.0446573E+06
   -0.26   700.000   -4.593E+01    4.0494009E+06   -9.8346838E+03   -5.7455155E+02    4.0494009E+06    5.7455760E+02    4.0586610E+06
   -0.25   700.000   -4.635E+01    4.0616498E+06   -9.4173086E+03   -3.0508784E+02    4.0616499E+06    3.0509610E+02    4.0707621E+06
   -0.24   700.000   -4.677E+01    4.0714012E+06   -8.8100014E+03    1.0149514E+02    4.0714013E+06   -1.0148489E+02    4.0803128E+06
   -0.23   700.000   -4.719E+01    4.0781143E+06   -8.0569119E+03    6.0475933E+02    4.0781143E+06   -6.0474738E+02    4.0867760E+06
   -0.22   700.000   -4.761E+01    4.0813940E+06   -7.2110544E+03    1.1577356E+03    4.0813940E+06   -1.1577223E+03    4.0897628E+06
   -0.21   700.000   -4.803E+01    4.0810100E+06   -6.3290110E+03    1.7121252E+03    4.0810100E+06   -1.7121108E+03    4.0890512E+06
   -0.20   700.000   -4.846E+01    4.0768949E+06   -5.4650513E+03    2.2237896E+03    4.0768950E+06   -2.2237746E+03    4.0845838E+06
   -0.19   700.000   -4.889E+01    4.0691248E+06   -4.6656606E+03    2.6575810E+03    4.0691249E+06   -2.6575657E+03    4.0764481E+06
   -0.18   700.000   -4.932E+01    4.0578870E+06   -3.9654145E+03    2.9906679E+03    4.0578870E+06   -2.9906525E+03    4.0648431E+06
   -0.17   700.000   -4.975E+01    4.0434430E+06   -3.3848520E+03    3.2138286E+03    4.0434431E+06   -3.2138136E+03    4.0500418E+06
   -0.16   700.000   -5.019E+01    4.0260964E+06   -2.9305628E+03    3.3306106E+03    4.0260964E+06   -3.3305961E+03    4.0323576E+06
   -0.15   700.000   -5.063E+01    4.0061699E+06   -2.5972547E+03    3.3546799E+03    4.0061700E+06   -3.3546662E+03    4.0121219E+06
   -0.14   700.000   -5.108E+01    3.9839988E+06   -2.3712156E+03    3.3059958E+03    3.9839988E+06   -3.3059829E+03    3.9896760E+06
   -0.13   700.000   -5.153E+01    3.9599368E+06   -2.2344149E+03    3.2065762E+03    3.9599368E+06   -3.2065644E+03    3.9653778E+06
   -0.12   700.000   -5.199E+01    3.9343736E+06   -2.1685111E+03    3.0765692E+03    3.9343736E+06   -3.0765585E+03    3.9396187E+06
   -0.11   700.000   -5.245E+01    3.9077544E+06   -2.1582006E+03    2.9311572E+03    3.9077544E+06   -2.9311477E+03    3.9128438E+06
   -0.10   700.000   -5.292E+01    3.8805938E+06   -2.1935804E+03    2.7785700E+03    3.8805938E+06   -2.7785617E+03    3.8855660E+06
   -0.09   700.000   -5.340E+01    3.8534766E+06   -2.2714361E+03    2.6192393E+03    3.8534766E+06   -2.6192323E+03    3.8583673E+06
   -0.08   700.000   -5.389E+01    3.8270408E+06   -2.3955503E+03    2.4459414E+03    3.8270408E+06   -2.4459357E+03    3.8318823E+06
   -0.07   700.000   -5.439E+01    3.8019430E+06   -2.5762394E+03    2.2446645E+03    3.8019430E+06   -2.2446599E+03    3.8067639E+06
   -0.06   700.000   -5.490E+01    3.7788097E+06   -2.8293746E+03    1.9959027E+03    3.7788097E+06   -1.9958993E+03    3.7836350E+06
   -0.05   700.000   -5.541E+01    3.7581830E+06   -3.1751301E+03    1.6761075E+03    3.7581830E+06   -1.6761053E+03    3.7630343E+06
   -0.04   700.000   -5.594E+01    3.7404680E+06   -3.6366490E+03    1.2591009E+03    3.7404681E+06   -1.2590997E+03    3.7453638E+06
   -0.03   700.000   -5.648E+01    3.7258915E+06   -4.2387341E+03    7.1736226E+02    3.7258915E+06   -7.1736209E+02    3.7308476E+06
   -0.02   700.000   -5.703E+01    3.7144770E+06   -5.0065769E+03    2.3208018E+01    3.7144770E+06   -2.3208690E+01    3.7195068E+06
   -0.01   700.000   -5.758E+01    3.7060406E+06   -5.9644736E+03   -8.5004337E+02    3.7060406E+06    8.5004201E+02    3.7111551E+06
    0.00   700.000   -5.815E+01    3.7002074E+06   -7.1344571E+03   -1.9268129E+03    3.7002074E+06    1.9268110E+03    3.7054150E+06
    0.01   700.000   -5.873E+01    3.6964460E+06   -8.5348262E+03   -3.2278646E+03    3.6964460E+06    3.2278625E+03    3.7017530E+06
    0.02   700.000   -5.931E+01    3.6941191E+06   -1.0178654E+04   -4.7688436E+03    3.6941191E+06    4.7688414E+03    3.6995289E+06
    0.03   700.000   -5.991E+01    3.6925416E+06   -1.2072468E+04   -6.5589447E+03    3.6925416E+06    6.5589426E+03    3.6980552E+06
    0.04   700.000   -6.051E+01    3.6910437E+06   -1.4215346E+04   -8.5999804E+03    3.6910437E+06    8.5999787E+03    3.6966591E+06
    0.05   700.000   -6.112E+01    3.6890300E+06   -1.6598664E+04   -1.0886092E+04    3.6890300E+06    1.0886091E+04    3.6947425E+06
    0.06   700.000   -6.174E+01    3.6860304E+06   -1.9206573E+04   -1.3404227E+04    3.6860304E+06    1.3404227E+04    3.6918328E+06
    0.07   700.000   -6.236E+01    3.6817381E+06   -2.2017167E+04   -1.6135323E+04    3.6817382E+06    1.6135324E+04    3.6876200E+06
    0.08   700.000   -6.299E+01    3.6760304E+06   -2.5004138E+04   -1.9056002E+04    3.6760305E+06    1.9056003E+04    3.6819786E+06
    0.09   700.000   -6.363E+01    3.6689713E+06   -2.8138656E+04   -2.2140478E+04    3.6689713E+06    2.2140481E+04    3.6749695E+06
    0.10   700.000   -6.427E+01    3.6607964E+06   -3.1391253E+04   -2.5362417E+04    3.6607965E+06    2.5362421E+04    3.6668253E+06
    0.11   700.000   -6.492E+01    3.6518833E+06   -3.4733527E+04   -2.8696522E+04    3.6518833E+06    2.8696526E+04    3.6579203E+06
    0.12   700.000   -6.558E+01    3.6427095E+06   -3.8139570E+04   -3.2119735E+04    3.6427095E+06    3.2119740E+04    3.6487293E+06
    0.13   700.000   -6.624E+01    3.6338054E+06   -4.1587022E+04   -3.5611968E+04    3.6338054E+06    3.5611973E+04    3.6397805E+06
    0.14   700.000   -6.690E+01    3.6257071E+06   -4.5057650E+04   -3.9156299E+04    3.6257071E+06    3.9156305E+04    3.6316084E+06
    0.15   700.000   -6.758E+01    3.6189129E+06   -4.8537385E+04   -4.2738639E+04    3.6189130E+06    4.2738645E+04    3.6247117E+06
    0.16   700.000   -6.826E+01    3.6138491E+06   -5.2015765E+04   -4.6346896E+04    3.6138492E+06    4.6346903E+04    3.6195181E+06
    0.17   700.000   -6.894E+01    3.6108445E+06   -5.5484896E+04   -4.9969799E+04    3.6108446E+06    4.9969806E+04    3.6163597E+06
    0.18   700.000   -6.963E+01    3.6101155E+06   -5.8938120E+04   -5.3595606E+04    3.6101155E+06    5.3595614E+04    3.6154580E+06
    0.19   700.000   -7.033E+01    3.6117589E+06   -6.2368663E+04   -5.7210984E+04    3.6117590E+06    5.7210993E+04    3.6169167E+06
    0.20   700.000   -7.104E+01    3.6157509E+06   -6.5768514E+04   -6.0800249E+04    3.6157510E+06    6.0800259E+04    3.6207193E+06
    0.21   700.000   -7.175E+01    3.6219497E+06   -6.9127654E+04   -6.4345057E+04    3.6219497E+06    6.4345068E+04    3.6267323E+06
    0.22   700.000   -7.247E+01    3.6301012E+06   -7.2433600E+04   -6.7824436E+04    3.6301012E+06    6.7824448E+04    3.6347104E+06
    0.23   700.000   -7.319E+01    3.6398499E+06   -7.5671087E+04   -7.1214941E+04    3.6398499E+06    7.1214955E+04    3.6443061E+06
    0.24   700.000   -7.392E+01    3.6507546E+06   -7.8821692E+04   -7.4490697E+04    3.6507547E+06    7.4490713E+04    3.6550857E+06
    0.25   700.000   -7.466E+01    3.6623125E+06   -8.1863329E+04   -7.7623224E+04    3.6623126E+06    7.7623243E+04    3.6665527E+06
    0.26   700.000   -7.540E+01    3.6739907E+06   -8.4769706E+04   -8.0581161E+04    3.6739908E+06    8.0581182E+04    3.6781793E+06
    0.27   700.000   -7.615E+01    3.6852659E+06   -8.7510106E+04   -8.3330216E+04    3.6852660E+06    8.3330239E+04    3.6894459E+06
    0.28   700.000   -7.690E+01    3.6956679E+06   -9.0049907E+04   -8.5833808E+04    3.6956680E+06    8.5833833E+04    3.6998841E+06
    0.29   700.000   -7.766E+01    3.7048234E+06   -9.2352210E+04   -8.8054753E+04    3.7048236E+06    8.8054780E+04    3.7091210E+06
    0.30   700.000   -7.842E+01    3.7124945E+06   -9.4380646E+04   -8.9958093E+04    3.7124947E+06    8.9958122E+04    3.7169172E+06
    0.31   700.000   -7.919E+01    3.7186072E+06   -9.6103048E+04   -9.1514757E+04    3.7186074E+06    9.1514786E+04    3.7231957E+06
    0.32   700.000   -7.996E+01    3.7232661E+06   -9.7495308E+04   -9.2705360E+04    3.7232662E+06    9.2705390E+04    3.7280562E+06
    0.33   700.000   -8.073E+01    3.7267515E+06   -9.8544518E+04   -9.3523256E+04    3.7267517E+06    9.3523286E+04    3.7317729E+06
    0.34   700.000   -8.151E+01    3.7294998E+06   -9.9250593E+04   -9.3976013E+04    3.7295000E+06    9.3976043E+04    3.7347746E+06
    0.35   700.000   -8.230E+01    3.7320654E+06   -9.9625903E+04   -9.4084816E+04    3.7320656E+06    9.4084844E+04    3.7376067E+06
    0.36   700.000   -8.308E+01    3.7350692E+06   -9.9692924E+04   -9.3881824E+04    3.7350693E+06    9.3881850E+04    3.7408804E+06
    0.37   700.000   -8.387E+01    3.7391365E+06   -9.9480459E+04   -9.3405995E+04    3.7391366E+06    9.3406020E+04    3.7452111E+06
    0.38   700.000   -8.467E+01    3.7448321E+06   -9.9019318E+04   -9.2698300E+04    3.7448322E+06    9.2698321E+04    3.7511532E+06
    0.39   700.000   -8.547E+01    3.7525976E+06   -9.8338437E+04   -9.1797308E+04    3.7525978E+06    9.1797327E+04    3.7591389E+06
    0.40   700.000   -8.627E+01    3.7627005E+06   -9.7462246E+04   -9.0736025E+04    3.7627006E+06    9.0736041E+04    3.7694269E+06
    0.41   700.000   -8.708E+01    3.7751986E+06   -9.6409715E+04   -8.9540449E+04    3.7751987E+06    8.9540461E+04    3.7820680E+06
    0.42   700.000   -8.790E+01    3.7899252E+06   -9.5195069E+04   -8.8229889E+04    3.7899254E+06    8.8229898E+04    3.7968905E+06
    0.43   700.000   -8.872E+01    3.8064949E+06   -9.3829714E+04   -8.6818673E+04    3.8064950E+06    8.6818679E+04    3.8135060E+06
    0.44   700.000   -8.955E+01    3.8243269E+06   -9.2324710E+04   -8.5318567E+04    3.8243270E+06    8.5318569E+04    3.8313332E+06
    0.45   700.000   -9.038E+01    3.8426837E+06   -9.0692976E+04   -8.3741133E+04    3.8426838E+06    8.3741133E+04    3.8496357E+06
    0.46   700.000   -9.122E+01    3.8607171E+06   -8.8950561E+04   -8.2099324E+04    3.8607172E+06    8.2099321E+04    3.8675684E+06
    0.47   700.000   -9.207E+01    3.8775174E+06   -8.7116559E+04   -8.0407824E+04    3.8775175E+06    8.0407820E+04    3.8842262E+06
    0.48   700.000   -9.292E+01    3.8921622E+06   -8.5211580E+04   -7.8682009E+04    3.8921623E+06    7.8682003E+04    3.8986918E+06
    0.49   700.000   -9.378E+01    3.9037598E+06   -8.3255139E+04   -7.6935785E+04    3.9037599E+06    7.6935777E+04    3.9100792E+06
    0.50   700.000   -9.465E+01    3.9114884E+06   -8.1262622E+04   -7.5178926E+04    3.9114885E+06    7.5178917E+04    3.9175722E+06
    0.51   700.000   -9.552E+01    3.9146291E+06   -7.9242734E+04   -7.3414758E+04    3.9146292E+06    7.3414749E+04    3.9204572E+06
    0.52   700.000   -9.640E+01    3.9125937E+06   -7.7196258E+04   -7.1639029E+04    3.9125938E+06    7.1639020E+04    3.9181510E+06
    0.53   700.000   -9.729E+01    3.9049463E+06   -7.5116719E+04   -6.9840560E+04    3.9049463E+06    6.9840552E+04    3.9102225E+06
    0.54   700.000   -9.818E+01    3.8914178E+06   -7.2993006E+04   -6.8003811E+04    3.8914179E+06    6.8003803E+04    3.8964071E+06
    0.55   700.000   -9.908E+01    3.8719128E+06   -7.0813513E+04   -6.6112937E+04    3.8719129E+06    6.6112930E+04    3.8766135E+06
    0.56   700.000   -9.998E+01    3.8465047E+06   -6.8570833E+04   -6.4156456E+04    3.8465048E+06    6.4156450E+04    3.8509191E+06
    0.57   700.000   -1.009E+02    3.8154200E+06   -6.6265857E+04   -6.2131373E+04    3.8154201E+06    6.2131369E+04    3.8195546E+06
    0.58   700.000   -1.018E+02    3.7790116E+06   -6.3910211E+04   -6.0045706E+04    3.7790117E+06    6.0045703E+04    3.7828762E+06
    0.59   700.000   -1.027E+02    3.7377220E+06   -6.1526322E+04   -5.7918686E+04    3.7377221E+06    5.7918684E+04    3.7413297E+06
    0.60   700.000   -1.036E+02    3.6920418E+06   -5.9145005E+04   -5.5778478E+04    3.6920418E+06    5.5778477E+04    3.6954084E+06
    0.61   700.000   -1.045E+02    3.6424670E+06   -5.6801008E+04   -5.3657843E+04    3.6424671E+06    5.3657843E+04    3.6456102E+06
    0.62   700.000   -1.054E+02    3.5894625E+06   -5.4527404E+04   -5.1588588E+04    3.5894625E+06    5.1588589E+04    3.5924013E+06
    0.63   700.000   -1.063E+02    3.5334352E+06   -5.2349904E+04   -4.9595892E+04    3.5334353E+06    4.9595894E+04    3.5361893E+06
    0.64   700.000   -1.072E+02    3.4747225E+06   -5.0282147E+04   -4.7693544E+04    3.4747225E+06    4.7693547E+04    3.4773111E+06
    0.65   700.000   -1.081E+02    3.4135946E+06   -4.8322766E+04   -4.5880929E+04    3.4135947E+06    4.5880932E+04    3.4160365E+06
    0.66   700.000   -1.089E+02    3.3502726E+06   -4.6454719E+04   -4.4142240E+04    3.3502727E+06    4.4142244E+04    3.3525852E+06
    0.67   700.000   -1.098E+02    3.2849550E+06   -4.4646993E+04   -4.2448073E+04    3.2849551E+06    4.2448077E+04    3.2871540E+06
    0.68   700.000   -1.106E+02    3.2178490E+06   -4.2858468E+04   -4.0759162E+04    3.2178490E+06    4.0759166E+04    3.2199484E+06
    0.69   700.000   -1.115E+02    3.1492001E+06   -4.1043366E+04   -3.9031731E+04    3.1492002E+06    3.9031735E+04    3.1512118E+06
    0.70   700.000   -1.123E+02    3.0793154E+06   -3.9157535E+04   -3.7223674E+04    3.0793155E+06    3.7223677E+04    3.0812494E+06
    0.71   700.000   -1.131E+02    3.0085762E+06   -3.7164615E+04   -3.5300641E+04    3.0085763E+06    3.5300643E+04    3.0104402E+06
    0.72   700.000   -1.139E+02    2.9374407E+06   -3.5041184E+04   -3.3241106E+04    2.9374408E+06    3.3241108E+04    2.9392408E+06
    0.73   700.000   -1.146E+02    2.8664373E+06   -3.2780097E+04   -3.1039655E+04    2.8664374E+06    3.1039656E+04    2.8681778E+06
    0.74   700.000   -1.154E+02    2.7961507E+06   -3.0391573E+04   -2.8708022E+04    2.7961508E+06    2.8708022E+04    2.7978343E+06
    0.75   700.000   -1.161E+02    2.7272039E+06   -2.7901981E+04   -2.6273845E+04    2.7272040E+06    2.6273845E+04    2.7288322E+06
    0.76   700.000   -1.168E+02    2.6602399E+06   -2.5350648E+04   -2.3777465E+04    2.6602400E+06    2.3777464E+04    2.6618131E+06
    0.77   700.000   -1.175E+02    2.5959021E+06   -2.2785401E+04   -2.1267460E+04    2.5959022E+06    2.1267459E+04    2.5974201E+06
    0.78   700.000   -1.182E+02    2.5348181E+06   -2.0257652E+04   -1.8795741E+04    2.5348182E+06    1.8795740E+04    2.5362801E+06
    0.79   700.000   -1.189E+02    2.4775832E+06   -1.7817847E+04   -1.6413018E+04    2.4775833E+06    1.6413018E+04    2.4789881E+06
    0.80   700.000   -1.195E+02    2.4247455E+06   -1.5511889E+04   -1.4165231E+04    2.4247456E+06    1.4165231E+04    2.4260923E+06
    0.81   700.000   -1.201E+02    2.3767912E+06   -1.3378803E+04   -1.2091229E+04    2.3767913E+06    1.2091230E+04    2.3780789E+06
    0.82   700.000   -1.207E+02    2.3341290E+06   -1.1449619E+04   -1.0221668E+04    2.3341291E+06    1.0221670E+04    2.3353571E+06
    0.83   700.000   -1.213E+02    2.2970743E+06   -9.7471559E+03   -8.5788035E+03    2.2970743E+06    8.5788064E+03    2.2982427E+06
    0.84   700.000   -1.219E+02    2.2658319E+06   -8.2862734E+03   -7.1767661E+03    2.2658320E+06    7.1767701E+03    2.2669415E+06
    0.85   700.000   -1.225E+02    2.2404799E+06   -7.0742311E+03   -6.0219533E+03    2.2404799E+06    6.0219583E+03    2.2415322E+06
    0.86   700.000   -1.230E+02    2.2209526E+06   -6.1109293E+03   -5.1133151E+03    2.2209526E+06    5.1133213E+03    2.2219503E+06
    0.87   700.000   -1.235E+02    2.2070272E+06   -5.3890590E+03   -4.4425615E+03    2.2070273E+06    4.4425687E+03    2.2079738E+06
    0.88   700.000   -1.241E+02    2.1983141E+06   -4.8943662E+03   -3.9944894E+03    2.1983142E+06    3.9944977E+03    2.1992141E+06
    0.89   700.000   -1.246E+02    2.1942544E+06   -4.6063143E+03   -3.7477082E+03    2.1942544E+06    3.7477175E+03    2.1951130E+06
    0.90   700.000   -1.251E+02    2.1941266E+06   -4.4993648E+03   -3.6759746E+03    2.1941267E+06    3.6759847E+03    2.1949501E+06
    0.91   700.000   -1.256E+02    2.1970663E+06   -4.5449165E+03   -3.7501720E+03    2.1970664E+06    3.7501830E+03    2.1978611E+06
    0.92   700.000   -1.261E+02    2.2020988E+06   -4.7137194E+03   -3.9407471E+03    2.2020988E+06    3.9407587E+03    2.2028718E+06
    0.93   700.000   -1.266E+02    2.2081849E+06   -4.9783986E+03   -4.2202359E+03    2.2081849E+06    4.2202480E+03    2.2089431E+06
    0.94   700.000   -1.271E+02    2.2142780E+06   -5.3156516E+03   -4.5654435E+03    2.2142780E+06    4.5654561E+03    2.2150282E+06
    0.95   700.000   -1.276E+02    2.2193857E+06   -5.7077397E+03   -4.9589008E+03    2.2193858E+06    4.9589139E+03    2.2201346E+06
    0.96   700.000   -1.280E+02    2.2226309E+06   -6.1430621E+03   -5.3893885E+03    2.2226310E+06    5.3894020E+03    2.2233846E+06
    0.97   700.000   -1.285E+02    2.2233038E+06   -6.6158142E+03   -5.8515340E+03    2.2233038E+06    5.8515480E+03    2.2240681E+06
    0.98   700.000   -1.290E+02    2.2209004E+06   -7.1249205E+03   -6.3446768E+03    2.2209005E+06    6.3446913E+03    2.2216807E+06
    0.99   700.000   -1.295E+02    2.2151429E+06   -7.6725471E+03   -6.8713130E+03    2.2151430E+06    6.8713280E+03    2.2159442E+06
    1.00   700.000   -1.300E+02    2.2059814E+06   -8.2625207E+03   -7.4354498E+03    2.2059814E+06    7.4354654E+03    2.2068085E+06
    1.01   700.000   -1.305E+02    2.1935798E+06   -8.8989129E+03   -8.0411384E+03    2.1935798E+06    8.0411546E+03    2.1944376E+06
    1.02   700.000   -1.310E+02    2.1782892E+06   -9.5849495E+03   -8.6913479E+03    2.1782892E+06    8.6913648E+03    2.1791828E+06
    1.03   700.000   -1.315E+02    2.1606138E+06   -1.0322292E+04   -9.3872330E+03    2.1606138E+06    9.3872505E+03    2.1615488E+06
    1.04   700.000   -1.321E+02    2.1411730E+06   -1.1110661E+04   -1.0127768E+04    2.1411731E+06    1.0127786E+04    2.1421560E+06
    1.05   700.000   -1.326E+02    2.1206631E+06   -1.1947729E+04   -1.0909675E+04    2.1206632E+06    1.0909694E+04    2.1217012E+06
    1.06   700.000   -1.331E+02    2.0998187E+06   -1.2829196E+04   -1.1727560E+04    2.0998187E+06    1.1727579E+04    2.1009204E+06
    1.07   700.000   -1.336E+02    2.0793757E+06   -1.3748986E+04   -1.2574187E+04    2.0793757E+06    1.2574207E+04    2.0805505E+06
    1.08   700.000   -1.342E+02    2.0600351E+06   -1.4699502E+04   -1.3440831E+04    2.0600351E+06    1.3440852E+04    2.0612938E+06
    1.09   700.000   -1.348E+02    2.0424287E+06   -1.5671940E+04   -1.4317696E+04    2.0424287E+06    1.4317717E+04    2.0437829E+06
    1.10   700.000   -1.353E+02    2.0270883E+06   -1.6656658E+04   -1.5194383E+04    2.0270883E+06    1.5194405E+04    2.0285505E+06
    1.11   700.000   -1.359E+02    2.0144207E+06   -1.7643628E+04   -1.6060454E+04    2.0144207E+06    1.6060476E+04    2.0160038E+06
    1.12   700.000   -1.365E+02    2.0046908E+06   -1.8622989E+04   -1.6906061E+04    2.0046908E+06    1.6906084E+04    2.0064077E+06
    1.13   700.000   -1.371E+02    1.9980148E+06   -1.9585665E+04   -1.7722640E+04    1.9980148E+06    1.7722663E+04    1.9998778E+06
    1.14   700.000   -1.377E+02    1.9943640E+06   -2.0523996E+04   -1.8503570E+04    1.9943640E+06    1.8503593E+04    1.9963844E+06
    1.15   700.000   -1.384E+02    1.9935784E+06   -2.1432228E+04   -1.9244681E+04    1.9935783E+06    1.9244704E+04    1.9957659E+06
    1.16   700.000   -1.390E+02    1.9953875E+06   -2.2306768E+04   -1.9944475E+04    1.9953875E+06    1.9944499E+04    1.9977498E+06
    1.17   700.000   -1.397E+02    1.9994366E+06   -2.3146083E+04   -2.0603962E+04    1.9994365E+06    2.0603986E+04    2.0019786E+06
    1.18   700.000   -1.404E+02    2.0053129E+06   -2.3950255E+04   -2.1226127E+04    2.0053128E+06    2.1226152E+04    2.0080370E+06
    1.19   700.000   -1.411E+02    2.0125723E+06   -2.4720283E+04   -2.1815114E+04    2.0125723E+06    2.1815140E+04    2.0154775E+06
    1.20   700.000   -1.419E+02    2.0207618E+06   -2.5457336E+04   -2.2375352E+04    2.0207618E+06    2.2375379E+04    2.0238437E+06
    1.21   700.000   -1.426E+02    2.0294380E+06   -2.6162147E+04   -2.2910830E+04    2.0294380E+06    2.2910858E+04    2.0326893E+06
    1.22   700.000   -1.434E+02    2.0381823E+06   -2.6834741E+04   -2.3424703E+04    2.0381822E+06    2.3424732E+04    2.0415923E+06
    1.23   700.000   -1.442E+02    2.0466115E+06   -2.7474508E+04   -2.3919280E+04    2.0466115E+06    2.3919311E+04    2.0501667E+06
    1.24   700.000   -1.450E+02    2.0543867E+06   -2.8080534E+04   -2.4396293E+04    2.0543866E+06    2.4396326E+04    2.0580708E+06
    1.25   700.000   -1.459E+02    2.0612192E+06   -2.8651991E+04   -2.4857239E+04    2.0612191E+06    2.4857274E+04    2.0650138E+06
    1.26   700.000   -1.468E+02    2.0668763E+06   -2.9188356E+04   -2.5303569E+04    2.0668762E+06    2.5303605E+04    2.0707610E+06
    1.27   700.000   -1.477E+02    2.0711857E+06   -2.9689334E+04   -2.5736569E+04    2.0711856E+06    2.5736606E+04    2.0751384E+06
    1.28   700.000   -1.486E+02    2.0740391E+06   -3.0154476E+04   -2.6156925E+04    2.0740390E+06    2.6156963E+04    2.0780365E+06
    1.29   700.000   -1.496E+02    2.0753936E+06   -3.0582652E+04   -2.6564122E+04    2.0753935E+06    2.6564162E+04    2.0794120E+06
    1.30   700.000   -1.505E+02    2.0752715E+06   -3.0971617E+04   -2.6955926E+04    2.0752714E+06    2.6955967E+04    2.0792871E+06
    1.31   700.000   -1.516E+02    2.0737572E+06   -3.1317910E+04   -2.7328199E+04    2.0737571E+06    2.7328239E+04    2.0777468E+06
    1.32   700.000   -1.526E+02    2.0709926E+06   -3.1617195E+04   -2.7675197E+04    2.0709925E+06    2.7675238E+04    2.0749345E+06
    1.33   700.000   -1.537E+02    2.0671723E+06   -3.1865004E+04   -2.7990330E+04    2.0671722E+06    2.7990370E+04    2.0710469E+06
    1.34   700.000   -1.548E+02    2.0625394E+06   -3.2057666E+04   -2.8267177E+04    2.0625393E+06    2.8267216E+04    2.0663298E+06
    1.35   700.000   -1.560E+02    2.0573834E+06   -3.2193132E+04   -2.8500478E+04    2.0573833E+06    2.8500516E+04    2.0610759E+06
    1.36   700.000   -1.571E+02    2.0520400E+06   -3.2271434E+04   -2.8686803E+04    2.0520399E+06    2.8686840E+04    2.0556245E+06
    1.37   700.000   -1.583E+02    2.0468902E+06   -3.2294616E+04   -2.8824732E+04    2.0468901E+06    2.8824767E+04    2.0503599E+06
    1.38   700.000   -1.595E+02    2.0423567E+06   -3.2266180E+04   -2.8914513E+04    2.0423566E+06    2.8914546E+04    2.0457083E+06
    1.39   700.000   -1.607E+02    2.0388948E+06   -3.2190186E+04   -2.8957350E+04    2.0388947E+06    2.8957381E+04    2.0421275E+06
    1.40   700.000   -1.620E+02    2.0369752E+06   -3.2070280E+04   -2.8954528E+04    2.0369751E+06    2.8954557E+04    2.0400909E+06
    1.41   700.000   -1.632E+02    2.0370588E+06   -3.1908842E+04   -2.8906603E+04    2.0370587E+06    2.8906630E+04    2.0400609E+06
    1.42   700.000   -1.644E+02    2.0395647E+06   -3.1706422E+04   -2.8812815E+04    2.0395646E+06    2.8812839E+04    2.0424582E+06
    1.43   700.000   -1.657E+02    2.0448359E+06   -3.1461488E+04   -2.8670791E+04    2.0448357E+06    2.8670813E+04    2.0476264E+06
    1.44   700.000   -1.669E+02    2.0531051E+06   -3.1170464E+04   -2.8476515E+04    2.0531050E+06    2.8476535E+04    2.0557989E+06
    1.45   700.000   -1.681E+02    2.0644691E+06   -3.0827966E+04   -2.8224508E+04    2.0644689E+06    2.8224525E+04    2.0670724E+06
    1.46   700.000   -1.693E+02    2.0788718E+06   -3.0427187E+04   -2.7908167E+04    2.0788717E+06    2.7908182E+04    2.0813907E+06
    1.47   700.000   -1.705E+02    2.0961020E+06   -2.9960394E+04   -2.7520235E+04    2.0961019E+06    2.7520247E+04    2.0985420E+06
    1.48   700.000   -1.717E+02    2.1158040E+06   -2.9419576E+04   -2.7053409E+04    2.1158039E+06    2.7053418E+04    2.1181701E+06
    1.49   700.000   -1.728E+02    2.1375011E+06   -2.8797269E+04   -2.6501120E+04    2.1375009E+06    2.6501127E+04    2.1397971E+06
    1.50   700.000   -1.739E+02    2.1606285E+06   -2.8087576E+04   -2.5858485E+04    2.1606284E+06    2.5858490E+04    2.1628575E+06
    1.51   700.000   -1.750E+02    2.1845734E+06   -2.7287352E+04   -2.5123394E+04    2.1845733E+06    2.5123397E+04    2.1867373E+06
    1.52   700.000   -1.761E+02    2.2087170E+06   -2.6397427E+04   -2.4297608E+04    2.2087168E+06    2.4297608E+04    2.2108166E+06
    1.53   700.000   -1.771E+02    2.2324763E+06   -2.5423682E+04   -2.3387703E+04    2.2324762E+06    2.3387702E+04    2.2345122E+06
    1.54   700.000   -1.781E+02    2.2553437E+06   -2.4377765E+04   -2.2405655E+04    2.2553436E+06    2.2405653E+04    2.2573157E+06
    1.55   700.000   -1.791E+02    2.2769187E+06   -2.3277227E+04   -2.1368878E+04    2.2769186E+06    2.1368875E+04    2.2788269E+06
    1.56   700.000   -1.800E+02    2.2969327E+06   -2.2144984E+04   -2.0299626E+04    2.2969325E+06    2.0299622E+04    2.2987779E+06
    1.57   700.000   -1.809E+02    2.3152625E+06   -2.1008094E+04   -1.9223775E+04    2.3152624E+06    1.9223771E+04    2.3170467E+06
    1.58   700.000   -1.818E+02    2.3319329E+06   -1.9896000E+04   -1.8169129E+04    2.3319328E+06    1.8169125E+04    2.3336597E+06
    1.59   700.000   -1.827E+02    2.3471063E+06   -1.8838466E+04   -1.7163478E+04    2.3471062E+06    1.7163474E+04    2.3487812E+06
    1.60   700.000   -1.835E+02    2.3610630E+06   -1.7863499E+04   -1.6232671E+04    2.3610629E+06    1.6232668E+04    2.3626938E+06
    1.61   700.000   -1.843E+02    2.3741725E+06   -1.6995491E+04   -1.5398946E+04    2.3741724E+06    1.5398945E+04    2.3757689E+06
    1.62   700.000   -1.851E+02    2.3868599E+06   -1.6253785E+04   -1.4679665E+04    2.3868598E+06    1.4679664E+04    2.3884339E+06
    1.63   700.000   -1.859E+02    2.3995717E+06   -1.5651712E+04   -1.4086520E+04    2.3995716E+06    1.4086521E+04    2.4011368E+06
    1.64   700.000   -1.867E+02    2.4127433E+06   -1.5196102E+04   -1.3625191E+04    2.4127432E+06    1.3625193E+04    2.4143141E+06
    1.65   700.000   -1.875E+02    2.4267714E+06   -1.4887200E+04   -1.3295372E+04    2.4267713E+06    1.3295375E+04    2.4283631E+06
    1.66   700.000   -1.882E+02    2.4419942E+06   -1.4718903E+04   -1.3091097E+04    2.4419942E+06    1.3091101E+04    2.4436220E+06
    1.67   700.000   -1.890E+02    2.4586795E+06   -1.4679263E+04   -1.3001308E+04    2.4586795E+06    1.3001312E+04    2.4603574E+06
    1.68   700.000   -1.897E+02    2.4770203E+06   -1.4751270E+04   -1.3010645E+04    2.4770202E+06    1.3010650E+04    2.4787609E+06
    1.69   700.000   -1.905E+02    2.4971378E+06   -1.4913907E+04   -1.3100493E+04    2.4971378E+06    1.3100499E+04    2.4989512E+06
    1.70   700.000   -1.912E+02    2.5190893E+06   -1.5143527E+04   -1.3250274E+04    2.5190893E+06    1.3250279E+04    2.5209825E+06
    1.71   700.000   -1.919E+02    2.5428780E+06   -1.5415507E+04   -1.3438951E+04    2.5428780E+06    1.3438956E+04    2.5448545E+06
    1.72   700.000   -1.927E+02    2.5684633E+06   -1.5706077E+04   -1.3646648E+04    2.5684633E+06    1.3646652E+04    2.5705227E+06
    1.73   700.000   -1.934E+02    2.5957708E+06   -1.5994161E+04   -1.3856198E+04    2.5957708E+06    1.3856201E+04    2.5979087E+06
    1.74   700.000   -1.941E+02    2.6247008E+06   -1.6263008E+04   -1.4054441E+04    2.6247008E+06    1.4054443E+04    2.6269093E+06
    1.75   700.000   -1.948E+02    2.6551376E+06   -1.6501436E+04   -1.4233126E+04    2.6551376E+06    1.4233125E+04    2.6574059E+06
    1.76   700.000   -1.955E+02    2.6869607E+06   -1.6704581E+04   -1.4389343E+04    2.6869607E+06    1.4389340E+04    2.6892760E+06
    1.77   700.000   -1.963E+02    2.7200594E+06   -1.6874153E+04   -1.4525550E+04    2.7200594E+06    1.4525546E+04    2.7224080E+06
    1.78   700.000   -1.970E+02    2.7543502E+06   -1.7018263E+04   -1.4649291E+04    2.7543502E+06    1.4649284E+04    2.7567192E+06
    1.79   700.000   -1.977E+02    2.7897978E+06   -1.7150928E+04   -1.4772725E+04    2.7897978E+06    1.4772716E+04    2.7921760E+06
    1.80   700.000   -1.984E+02    2.8264334E+06   -1.7291314E+04   -1.4912033E+04    2.8264334E+06    1.4912022E+04    2.8288127E+06
    1.81   700.000   -1.991E+02    2.8643685E+06   -1.7462697E+04   -1.5086646E+04    2.8643685E+06    1.5086633E+04    2.8667445E+06
    1.82   700.000   -1.999E+02    2.9037977E+06   -1.7691064E+04   -1.5318191E+04    2.9037977E+06    1.5318175E+04    2.9061706E+06
    1.83   700.000   -2.006E+02    2.9449885E+06   -1.8003269E+04   -1.5629004E+04    2.9449885E+06    1.5628986E+04    2.9473627E+06
    1.84   700.000   -2.013E+02    2.9882553E+06   -1.8424726E+04   -1.6040180E+04    2.9882553E+06    1.6040160E+04    2.9906399E+06
    1.85   700.000   -2.020E+02    3.0339215E+06   -1.8976792E+04   -1.6569256E+04    3.0339215E+06    1.6569234E+04    3.0363291E+06
    1.86   700.000   -2.028E+02    3.0822728E+06   -1.9674154E+04   -1.7227849E+04    3.0822728E+06    1.7227825E+04    3.0847191E+06
    1.87   700.000   -2.035E+02    3.1335107E+06   -2.0522715E+04   -1.8019712E+04    3.1335107E+06    1.8019686E+04    3.1360137E+06
    1.88   700.000   -2.042E+02    3.1877145E+06   -2.1518436E+04   -1.8939683E+04    3.1877145E+06    1.8939656E+04    3.1902933E+06
    1.89   700.000   -2.050E+02    3.2448181E+06   -2.2647514E+04   -1.9973898E+04    3.2448181E+06    1.9973868E+04    3.2474917E+06
    1.90   700.000   -2.057E+02    3.3046077E+06   -2.3887955E+04   -2.1101340E+04    3.3046077E+06    2.1101309E+04    3.3073943E+06
    1.91   700.000   -2.065E+02    3.3667427E+06   -2.5212325E+04   -2.2296502E+04    3.3667427E+06    2.2296469E+04    3.3696586E+06
    1.92   700.000   -2.072E+02    3.4307956E+06   -2.6591147E+04   -2.3532647E+04    3.4307956E+06    2.3532611E+04    3.4338541E+06
    1.93   700.000   -2.080E+02    3.4963077E+06   -2.7996313E+04   -2.4785034E+04    3.4963077E+06    2.4784997E+04    3.4995190E+06
    1.94   700.000   -2.088E+02    3.5628523E+06   -2.9403908E+04   -2.6033515E+04    3.5628523E+06    2.6033476E+04    3.5662227E+06
    1.95   700.000   -2.095E+02    3.6300974E+06   -3.0796024E+04   -2.7264094E+04    3.6300974E+06    2.7264053E+04    3.6336293E+06
    1.96   700.000   -2.103E+02    3.6978606E+06   -3.2161401E+04   -2.8469290E+04    3.6978606E+06    2.8469248E+04    3.7015527E+06
    1.97   700.000   -2.111E+02    3.7661495E+06   -3.3494953E+04   -2.9647402E+04    3.7661495E+06    2.9647359E+04    3.7699970E+06
    1.98   700.000   -2.119E+02    3.8351835E+06   -3.4796420E+04   -3.0800910E+04    3.8351834E+06    3.0800866E+04    3.8391790E+06
    1.99   700.000   -2.127E+02    3.9053932E+06   -3.6068476E+04   -3.1934400E+04    3.9053931E+06    3.1934355E+04    3.9095272E+06
    2.00   700.000   -2.135E+02    3.9773971E+06   -3.7314643E+04   -3.3052361E+04    3.9773970E+06    3.3052316E+04    3.9816593E+06
    2.01   700.000   -2.143E+02    4.0519553E+06   -3.8537375E+04   -3.4157242E+04    4.0519553E+06    3.4157196E+04    4.0563354E+06
    2.02   700.000   -2.151E+02    4.1299037E+06   -3.9736578E+04   -3.5248038E+04    4.1299037E+06    3.5247992E+04    4.1343922E+06
    2.03   700.000   -2.159E+02    4.2120733E+06   -4.0908803E+04   -3.6319620E+04    4.2120733E+06    3.6319574E+04    4.2166625E+06
    2.04   700.000   -2.167E+02    4.2992029E+06   -4.2047180E+04   -3.7362859E+04    4.2992029E+06    3.7362814E+04    4.3038872E+06
    2.05   700.000   -2.175E+02    4.3918545E+06   -4.3142075E+04   -3.8365494E+04    4.3918544E+06    3.8365450E+04    4.3966310E+06
    2.06   700.000   -2.183E+02    4.4903408E+06   -4.4182332E+04   -3.9313577E+04    4.4903407E+06    3.9313533E+04    4.4952095E+06
    2.07   700.000   -2.191E+02    4.5946747E+06   -4.5156903E+04   -4.0193276E+04    4.5946747E+06    4.0193233E+04    4.5996383E+06
    2.08   700.000   -2.199E+02    4.7045465E+06   -4.6056582E+04   -4.0992778E+04    4.7045465E+06    4.0992736E+04    4.7096103E+06
    2.09   700.000   -2.207E+02    4.8193319E+06   -4.6875600E+04   -4.1704015E+04    4.8193319E+06    4.1703974E+04    4.8245035E+06
    2.10   700.000   -2.215E+02    4.9381306E+06   -4.7612779E+04   -4.2323963E+04    4.9381306E+06    4.2323923E+04    4.9434194E+06
    2.11   700.000   -2.223E+02    5.0598307E+06   -4.8272035E+04   -4.2855258E+04    5.0598307E+06    4.2855220E+04    5.0652475E+06
    2.12   700.000   -2.231E+02    5.1831921E+06   -4.8862086E+04   -4.3306016E+04    5.1831921E+06    4.3305979E+04    5.1887481E+06
    2.13   700.000   -2.239E+02    5.3069391E+06   -4.9395422E+04   -4.3688854E+04    5.3069390E+06    4.3688820E+04    5.3126456E+06
    2.14   700.000   -2.247E+02    5.4298537E+06   -4.9886722E+04   -4.4019301E+04    5.4298536E+06    4.4019268E+04    5.4357210E+06
    2.15   700.000   -2.255E+02    5.5508586E+06   -5.0351083E+04   -4.4313940E+04    5.5508585E+06    4.4313908E+04    5.5568957E+06
    2.16   700.000   -2.263E+02    5.6690829E+06   -5.0802447E+04   -4.4588678E+04    5.6690829E+06    4.4588648E+04    5.6752966E+06
    2.17   700.000   -2.271E+02    5.7839051E+06   -5.1252543E+04   -4.4857485E+04    5.7839051E+06    4.4857457E+04    5.7903002E+06
    2.18   700.000   -2.279E+02    5.8949705E+06   -5.1710460E+04   -4.5131749E+04    5.8949705E+06    4.5131722E+04    5.9015492E+06
    2.19   700.000   -2.286E+02    6.0021851E+06   -5.2182785E+04   -4.5420224E+04    6.0021850E+06    4.5420199E+04    6.0089476E+06
    2.20   700.000   -2.294E+02    6.1056891E+06   -5.2674063E+04   -4.5729365E+04    6.1056890E+06    4.5729341E+04    6.1126337E+06
    2.21   700.000   -2.302E+02    6.2058148E+06   -5.3187278E+04   -4.6063747E+04    6.2058148E+06    4.6063724E+04    6.2129383E+06
    2.22   700.000   -2.309E+02    6.3030337E+06   -5.3724163E+04   -4.6426383E+04    6.3030336E+06    4.6426361E+04    6.3103314E+06
    2.23   700.000   -2.317E+02    6.3978962E+06   -5.4285236E+04   -4.6818817E+04    6.3978961E+06    4.6818797E+04    6.4053626E+06
    2.24   700.000   -2.324E+02    6.4909690E+06   -5.4869694E+04   -4.7241089E+04    6.4909689E+06    4.7241070E+04    6.4985976E+06
    2.25   700.000   -2.331E+02    6.5827705E+06   -5.5475322E+04   -4.7691718E+04    6.5827704E+06    4.7691700E+04    6.5905540E+06
    2.26   700.000   -2.339E+02    6.6737091E+06   -5.6098638E+04   -4.8167897E+04    6.6737091E+06    4.8167880E+04    6.6816398E+06
    2.27   700.000   -2.346E+02    6.7640281E+06   -5.6735352E+04   -4.8665976E+04    6.7640281E+06    4.8665961E+04    6.7720974E+06
    2.28   700.000   -2.353E+02    6.8537610E+06   -5.7381113E+04   -4.9182203E+04    6.8537610E+06    4.9182188E+04    6.8619599E+06
    2.29   700.000   -2.361E+02    6.9427038E+06   -5.8032343E+04   -4.9713534E+04    6.9427037E+06    4.9713521E+04    6.9510225E+06
    2.30   700.000   -2.368E+02    7.0304066E+06   -5.8686931E+04   -5.0258295E+04    7.0304065E+06    5.0258283E+04    7.0388352E+06
    2.31   700.000   -2.375E+02    7.1161886E+06   -5.9344519E+04   -5.0816416E+04    7.1161885E+06    5.0816404E+04    7.1247166E+06
    2.32   700.000   -2.382E+02    7.1991740E+06   -6.0006227E+04   -5.1389107E+04    7.1991739E+06    5.1389097E+04    7.2077910E+06
    2.33   700.000   -2.389E+02    7.2783483E+06   -6.0673792E+04   -5.1977953E+04    7.2783482E+06    5.1977945E+04    7.2870440E+06
    2.34   700.000   -2.397E+02    7.3526289E+06   -6.1348283E+04   -5.2583606E+04    7.3526288E+06    5.2583598E+04    7.3613934E+06
    2.35   700.000   -2.404E+02    7.4209443E+06   -6.2028754E+04   -5.3204432E+04    7.4209442E+06    5.3204426E+04    7.4297685E+06
    2.36   700.000   -2.411E+02    7.4823187E+06   -6.2711294E+04   -5.3835607E+04    7.4823186E+06    5.3835602E+04    7.4911943E+06
    2.37   700.000   -2.418E+02    7.5359553E+06   -6.3388953E+04   -5.4469122E+04    7.5359552E+06    5.4469118E+04    7.5448750E+06
    2.38   700.000   -2.426E+02    7.5813173E+06   -6.4052815E+04   -5.5094975E+04    7.5813172E+06    5.5094973E+04    7.5902750E+06
    2.39   700.000   -2.433E+02    7.6182015E+06   -6.4694191E+04   -5.5703492E+04    7.6182014E+06    5.5703492E+04    7.6271921E+06
    2.40   700.000   -2.440E+02    7.6468000E+06   -6.5307422E+04   -5.6288264E+04    7.6467999E+06    5.6288265E+04    7.6558190E+06
    2.41   700.000   -2.447E+02    7.6677407E+06   -6.5892461E+04   -5.6848855E+04    7.6677406E+06    5.6848858E+04    7.6767842E+06
    2.42   700.000   -2.454E+02    7.6820983E+06   -6.6456288E+04   -5.7392310E+04    7.6820982E+06    5.7392315E+04    7.6911622E+06
    2.43   700.000   -2.461E+02    7.6913641E+06   -6.7012400E+04   -5.7932718E+04    7.6913640E+06    5.7932725E+04    7.7004437E+06
    2.44   700.000   -2.469E+02    7.6973692E+06   -6.7578199E+04   -5.8488633E+04    7.6973691E+06    5.8488642E+04    7.7064586E+06
    2.45   700.000   -2.476E+02    7.7021622E+06   -6.8170780E+04   -5.9078859E+04    7.7021621E+06    5.9078869E+04    7.7112540E+06
    2.46   700.000   -2.483E+02    7.7078512E+06   -6.8802232E+04   -5.9717673E+04    7.7078511E+06    5.9717685E+04    7.7169357E+06
    2.47   700.000   -2.490E+02    7.7164287E+06   -6.9475795E+04   -6.0410846E+04    7.7164286E+06    6.0410860E+04    7.7254935E+06
    2.48   700.000   -2.497E+02    7.7296032E+06   -7.0184011E+04   -6.1153571E+04    7.7296031E+06    6.1153587E+04    7.7386336E+06
    2.49   700.000   -2.503E+02    7.7486621E+06   -7.0909353E+04   -6.1930802E+04    7.7486620E+06    6.1930820E+04    7.7576406E+06
    2.50   700.000   -2.510E+02    7.7743825E+06   -7.1627007E+04   -6.2719704E+04    7.7743825E+06    6.2719723E+04    7.7832898E+06
    2.51   700.000   -2.517E+02    7.8070000E+06   -7.2308775E+04   -6.3493217E+04    7.8069999E+06    6.3493239E+04    7.8158155E+06
    2.52   700.000   -2.524E+02    7.8462308E+06   -7.2926730E+04   -6.4223422E+04    7.8462308E+06    6.4223446E+04    7.8549341E+06
    2.53   700.000   -2.531E+02    7.8913384E+06   -7.3455416E+04   -6.4883539E+04    7.8913384E+06    6.4883565E+04    7.8999103E+06
    2.54   700.000   -2.537E+02    7.9412245E+06   -7.3871954E+04   -6.5447964E+04    7.9412245E+06    6.5447992E+04    7.9496484E+06
    2.55   700.000   -2.544E+02    7.9945281E+06   -7.4154205E+04   -6.5890518E+04    7.9945281E+06    6.5890548E+04    8.0027918E+06
    2.56   700.000   -2.550E+02    8.0497193E+06   -7.4277849E+04   -6.6181761E+04    8.0497193E+06    6.6181793E+04    8.0578154E+06
    2.57   700.000   -2.557E+02    8.1051760E+06   -7.4213672E+04   -6.6286635E+04    8.1051760E+06    6.6286669E+04    8.1131030E+06
    2.58   700.000   -2.563E+02    8.1592442E+06   -7.3926229E+04   -6.6163586E+04    8.1592442E+06    6.6163622E+04    8.1670069E+06
    2.59   700.000   -2.569E+02    8.2102820E+06   -7.3374621E+04   -6.5765832E+04    8.2102820E+06    6.5765869E+04    8.2178908E+06
    2.60   700.000   -2.576E+02    8.2566921E+06   -7.2515298E+04   -6.5044646E+04    8.2566921E+06    6.5044684E+04    8.2641628E+06
    2.61   700.000   -2.582E+02    8.2969484E+06   -7.1306062E+04   -6.3953793E+04    8.2969484E+06    6.3953832E+04    8.3043007E+06
    2.62   700.000   -2.588E+02    8.3296181E+06   -6.9709993E+04   -6.2453772E+04    8.3296181E+06    6.2453811E+04    8.3368743E+06
    2.63   700.000   -2.594E+02    8.3533823E+06   -6.7698012E+04   -6.0514576E+04    8.3533823E+06    6.0514615E+04    8.3605657E+06
    2.64   700.000   -2.600E+02    8.3670547E+06   -6.5249326E+04   -5.8116170E+04    8.3670547E+06    5.8116209E+04    8.3741878E+06
    2.65   700.000   -2.606E+02    8.3696003E+06   -6.2349771E+04   -5.5246715E+04    8.3696003E+06    5.5246752E+04    8.3767034E+06
    2.66   700.000   -2.612E+02    8.3601549E+06   -5.8988937E+04   -5.1899398E+04    8.3601548E+06    5.1899433E+04    8.3672444E+06
    2.67   700.000   -2.617E+02    8.3380485E+06   -5.5157493E+04   -4.8069319E+04    8.3380485E+06    4.8069351E+04    8.3451367E+06
    2.68   700.000   -2.623E+02    8.3028362E+06   -5.0846225E+04   -4.3751959E+04    8.3028361E+06    4.3751988E+04    8.3099304E+06
    2.69   700.000   -2.628E+02    8.2543342E+06   -4.6047945E+04   -3.8944425E+04    8.2543342E+06    3.8944449E+04    8.2614377E+06
    2.70   700.000   -2.634E+02    8.1926619E+06   -4.0762614E+04   -3.3649885E+04    8.1926619E+06    3.3649905E+04    8.1997746E+06
    2.71   700.000   -2.639E+02    8.1182811E+06   -3.5005119E+04   -2.7884716E+04    8.1182811E+06    2.7884731E+04    8.1254015E+06
    2.72   700.000   -2.644E+02    8.0320265E+06   -2.8814339E+04   -2.1687082E+04    8.0320264E+06    2.1687091E+04    8.0391537E+06
    2.73   700.000   -2.649E+02    7.9351181E+06   -2.2261607E+04   -1.5125140E+04    7.9351180E+06    1.5125144E+04    7.9422545E+06
    2.74   700.000   -2.654E+02    7.8291487E+06   -1.5456692E+04   -8.3030617E+03    7.8291486E+06    8.3030596E+03    7.8363023E+06
    2.75   700.000   -2.658E+02    7.7160424E+06   -8.5497791E+03   -1.3633467E+03    7.7160424E+06    1.3633384E+03    7.7232288E+06
    2.76   700.000   -2.663E+02    7.5979852E+06   -1.7286138E+03    5.5154232E+03    7.5979851E+06   -5.5154378E+03    7.6052292E+06
    2.77   700.000   -2.668E+02    7.4773303E+06    4.7893117E+03    1.2125602E+04    7.4773302E+06   -1.2125623E+04    7.4846665E+06
    2.78   700.000   -2.672E+02    7.3564877E+06    1.0769039E+04    1.8241876E+04    7.3564877E+06   -1.8241903E+04    7.3639605E+06
    2.79   700.000   -2.676E+02    7.2378043E+06    1.5973961E+04    2.3636206E+04    7.2378042E+06   -2.3636239E+04    7.2454665E+06
    2.80   700.000   -2.681E+02    7.1234443E+06    2.0183922E+04    2.8095137E+04    7.1234442E+06   -2.8095176E+04    7.1313554E+06
    2.81   700.000   -2.685E+02    7.0152779E+06    2.3214010E+04    3.1437968E+04    7.0152779E+06   -3.1438012E+04    7.0235018E+06
    2.82   700.000   -2.689E+02    6.9147835E+06    2.4932171E+04    3.3533902E+04    6.9147835E+06   -3.3533952E+04    6.9233852E+06
    2.83   700.000   -2.693E+02    6.8229683E+06    2.5273530E+04    3.4316084E+04    6.8229683E+06   -3.4316140E+04    6.8320108E+06
    2.84   700.000   -2.697E+02    6.7403119E+06    2.4249311E+04    3.3790415E+04    6.7403118E+06   -3.3790476E+04    6.7498529E+06
    2.85   700.000   -2.702E+02    6.6667355E+06    2.1948721E+04    3.2037478E+04    6.6667354E+06   -3.2037544E+04    6.6768242E+06
    2.86   700.000   -2.706E+02    6.6016023E+06    1.8532996E+04    2.9206779E+04    6.6016022E+06   -2.9206850E+04    6.6122760E+06
    2.87   700.000   -2.710E+02    6.5437527E+06    1.4222013E+04    2.5503699E+04    6.5437526E+06   -2.5503774E+04    6.5550343E+06
    2.88   700.000   -2.714E+02    6.4915802E+06    9.2750423E+03    2.1170749E+04    6.4915801E+06   -2.1170827E+04    6.5034758E+06
    2.89   700.000   -2.718E+02    6.4431475E+06    3.9681483E+03    1.6465638E+04    6.4431474E+06   -1.6465720E+04    6.4556449E+06
    2.90   700.000   -2.722E+02    6.3963425E+06   -1.4288486E+03    1.1639093E+04    6.3963424E+06   -1.1639177E+04    6.4094104E+06
    2.91   700.000   -2.726E+02    6.3490623E+06   -6.6730597E+03    6.9151699E+03    6.3490622E+06   -6.9152553E+03    6.3626504E+06
    2.92   700.000   -2.730E+02    6.2994091E+06   -1.1564689E+04    2.4761916E+03    6.2994090E+06   -2.4762777E+03    6.3134499E+06
    2.93   700.000   -2.734E+02    6.2458773E+06   -1.5957347E+04   -1.5464728E+03    6.2458772E+06    1.5463868E+03    6.2602881E+06
    2.94   700.000   -2.738E+02    6.1875040E+06   -1.9762103E+04   -5.0755194E+03    6.1875039E+06    5.0754344E+03    6.2021905E+06
    2.95   700.000   -2.742E+02    6.1239638E+06   -2.2945685E+04   -8.0852335E+03    6.1239637E+06    8.0851503E+03    6.1388242E+06
    2.96   700.000   -2.746E+02    6.0555904E+06   -2.5523792E+04   -1.0594502E+04    6.0555904E+06    1.0594422E+04    6.0705196E+06
    2.97   700.000   -2.750E+02    5.9833228E+06   -2.7550866E+04   -1.2656678E+04    5.9833227E+06    1.2656600E+04    5.9982169E+06
    2.98   700.000   -2.754E+02    5.9085836E+06   -2.9107781E+04   -1.4347706E+04    5.9085835E+06    1.4347632E+04    5.9233436E+06
    2.99   700.000   -2.758E+02    5.8331116E+06   -3.0288893E+04   -1.5753844E+04    5.8331115E+06    1.5753775E+04    5.8476465E+06
    3.00   700.000   -2.762E+02    5.7587741E+06   -3.1189744E+04   -1.6960144E+04    5.7587740E+06    1.6960079E+04    5.7730036E+06
    3.01   700.000   -2.766E+02    5.6873904E+06   -3.1896562E+04   -1.8040686E+04    5.6873903E+06    1.8040626E+04    5.7012462E+06
    3.02   700.000   -2.770E+02    5.6205904E+06   -3.2478465E+04   -1.9051420E+04    5.6205903E+06    1.9051367E+04    5.6340174E+06
    3.03   700.000   -2.774E+02    5.5597253E+06   -3.2983053E+04   -2.0026252E+04    5.5597252E+06    2.0026203E+04    5.5726820E+06
    3.04   700.000   -2.778E+02    5.5058348E+06   -3.3435754E+04   -2.0976733E+04    5.5058347E+06    2.0976690E+04    5.5182938E+06
    3.05   700.000   -2.782E+02    5.4596657E+06   -3.3842843E+04   -2.1895332E+04    5.4596656E+06    2.1895294E+04    5.4716131E+06
    3.06   700.000   -2.786E+02    5.4217272E+06   -3.4197545E+04   -2.2761714E+04    5.4217271E+06    2.2761683E+04    5.4331629E+06
    3.07   700.000   -2.790E+02    5.3923668E+06   -3.4488065E+04   -2.3550922E+04    5.3923667E+06    2.3550896E+04    5.4033039E+06
    3.08   700.000   -2.794E+02    5.3718490E+06   -3.4705980E+04   -2.4241926E+04    5.3718489E+06    2.4241906E+04    5.3823129E+06
    3.09   700.000   -2.798E+02    5.3604230E+06   -3.4853308E+04   -2.4824873E+04    5.3604229E+06    2.4824857E+04    5.3704513E+06
    3.10   700.000   -2.802E+02    5.3583712E+06   -3.4946809E+04   -2.5305599E+04    5.3583711E+06    2.5305589E+04    5.3680123E+06
    3.11   700.000   -2.806E+02    5.3660314E+06   -3.5018701E+04   -2.5706599E+04    5.3660313E+06    2.5706594E+04    5.3753434E+06
    3.12   700.000   -2.810E+02    5.3837902E+06   -3.5113841E+04   -2.6064462E+04    5.3837901E+06    2.6064462E+04    5.3928395E+06
    3.13   700.000   -2.814E+02    5.4120471E+06   -3.5284217E+04   -2.6424610E+04    5.4120471E+06    2.6424614E+04    5.4209067E+06
    3.14   700.000   -2.818E+02    5.4511494E+06   -3.5582153E+04   -2.6834732E+04    5.4511494E+06    2.6834741E+04    5.4598968E+06
    3.15   700.000   -2.822E+02    5.5013025E+06   -3.6053772E+04   -2.7338428E+04    5.5013024E+06    2.7338442E+04    5.5100178E+06
    3.16   700.000   -2.826E+02    5.5624639E+06   -3.6733920E+04   -2.7970291E+04    5.5624638E+06    2.7970308E+04    5.5712274E+06
    3.17   700.000   -2.830E+02    5.6342339E+06   -3.7643204E+04   -2.8753061E+04    5.6342338E+06    2.8753082E+04    5.6431240E+06
    3.18   700.000   -2.834E+02    5.7157569E+06   -3.8787118E+04   -2.9696875E+04    5.7157568E+06    2.9696899E+04    5.7248471E+06
    3.19   700.000   -2.839E+02    5.8056492E+06   -4.0156766E+04   -3.0800080E+04    5.8056491E+06    3.0800107E+04    5.8150058E+06
    3.20   700.000   -2.843E+02    5.9019657E+06   -4.1730457E+04   -3.2050906E+04    5.9019657E+06    3.2050936E+04    5.9116453E+06
    3.21   700.000   -2.847E+02    6.0022123E+06   -4.3475538E+04   -3.3429286E+04    6.0022123E+06    3.3429319E+04    6.0122585E+06
    3.22   700.000   -2.851E+02    6.1034040E+06   -4.5350091E+04   -3.4908411E+04    6.1034040E+06    3.4908446E+04    6.1138457E+06
    3.23   700.000   -2.856E+02    6.2021662E+06   -4.7304438E+04   -3.6455883E+04    6.2021663E+06    3.6455920E+04    6.2130148E+06
    3.24   700.000   -2.860E+02    6.2948679E+06   -4.9282710E+04   -3.8034651E+04    6.2948679E+06    3.8034690E+04    6.3061160E+06
    3.25   700.000   -2.865E+02    6.3777799E+06   -5.1224810E+04   -3.9604039E+04    6.3777799E+06    3.9604080E+04    6.3894007E+06
    3.26   700.000   -2.869E+02    6.4472485E+06   -5.3069086E+04   -4.1121214E+04    6.4472485E+06    4.1121257E+04    6.4591964E+06
    3.27   700.000   -2.874E+02    6.4998772E+06   -5.4755802E+04   -4.2543285E+04    6.4998773E+06    4.2543328E+04    6.5120898E+06
    3.28   700.000   -2.879E+02    6.5327103E+06   -5.6231221E+04   -4.3830007E+04    6.5327103E+06    4.3830052E+04    6.5451116E+06
    3.29   700.000   -2.883E+02    6.5434086E+06   -5.7451871E+04   -4.4946878E+04    6.5434086E+06    4.4946923E+04    6.5559136E+06
    3.30   700.000   -2.888E+02    6.5304083E+06   -5.8388407E+04   -4.5868211E+04    6.5304084E+06    4.5868257E+04    6.5429286E+06
    3.31   700.000   -2.893E+02    6.4930480E+06   -5.9028508E+04   -4.6579764E+04    6.4930480E+06    4.6579809E+04    6.5054968E+06
    3.32   700.000   -2.898E+02    6.4316491E+06   -5.9378384E+04   -4.7080540E+04    6.4316492E+06    4.7080585E+04    6.4439471E+06
    3.33   700.000   -2.902E+02    6.3475377E+06   -5.9462702E+04   -4.7383497E+04    6.3475378E+06    4.7383541E+04    6.3596170E+06
    3.34   700.000   -2.907E+02    6.2429970E+06   -5.9322909E+04   -4.7515022E+04    6.2429971E+06    4.7515065E+04    6.2548050E+06
    3.35   700.000   -2.912E+02    6.1211514E+06   -5.9014108E+04   -4.7513139E+04    6.1211515E+06    4.7513180E+04    6.1326524E+06
    3.36   700.000   -2.917E+02    5.9857866E+06   -5.8600706E+04   -4.7424502E+04    5.9857866E+06    4.7424541E+04    5.9969628E+06
    3.37   700.000   -2.922E+02    5.8411221E+06   -5.8151092E+04   -4.7300301E+04    5.8411221E+06    4.7300338E+04    5.8519729E+06
    3.38   700.000   -2.927E+02    5.6915568E+06   -5.7731676E+04   -4.7191317E+04    5.6915569E+06    4.7191352E+04    5.7020973E+06
    3.39   700.000   -2.932E+02    5.5414124E+06   -5.7400687E+04   -4.7142503E+04    5.5414124E+06    4.7142535E+04    5.5516706E+06
    3.40   700.000   -2.937E+02    5.3946984E+06   -5.7202243E+04   -4.7187603E+04    5.3946985E+06    4.7187633E+04    5.4047131E+06
    3.41   700.000   -2.942E+02    5.2549216E+06   -5.7161259E+04   -4.7344426E+04    5.2549217E+06    4.7344452E+04    5.2647385E+06
    3.42   700.000   -2.947E+02    5.1249506E+06   -5.7279780E+04   -4.7611401E+04    5.1249506E+06    4.7611425E+04    5.1346190E+06
    3.43   700.000   -2.952E+02    5.0069435E+06   -5.7535232E+04   -4.7965940E+04    5.0069435E+06    4.7965961E+04    5.0165128E+06
    3.44   700.000   -2.957E+02    4.9023357E+06   -5.7880882E+04   -4.8364903E+04    4.9023357E+06    4.8364921E+04    4.9118517E+06
    3.45   700.000   -2.962E+02    4.8118793E+06   -5.8248589E+04   -4.8747231E+04    4.8118793E+06    4.8747246E+04    4.8213807E+06
    3.46   700.000   -2.968E+02    4.7357231E+06   -5.8553696E+04   -4.9038545E+04    4.7357231E+06    4.9038557E+04    4.7452383E+06
    3.47   700.000   -2.973E+02    4.6735199E+06   -5.8701755E+04   -4.9157340E+04    4.6735200E+06    4.9157351E+04    4.6830644E+06
    3.48   700.000   -2.978E+02    4.6245483E+06   -5.8596626E+04   -4.9022284E+04    4.6245484E+06    4.9022292E+04    4.6341227E+06
    3.49   700.000   -2.983E+02    4.5878361E+06   -5.8149356E+04   -4.8560013E+04    4.5878361E+06    4.8560019E+04    4.5974255E+06
    3.50   700.000   -2.989E+02    4.5622749E+06   -5.7287074E+04   -4.7712758E+04    4.5622749E+06    4.7712761E+04    4.5718492E+06
    3.51   700.000   -2.994E+02    4.5467172E+06   -5.5960959E+04   -4.6444952E+04    4.5467172E+06    4.6444954E+04    4.5562332E+06
    3.52   700.000   -2.999E+02    4.5400501E+06   -5.4152206E+04   -4.4747967E+04    4.5400501E+06    4.4747968E+04    4.5494543E+06
    3.53   700.000   -3.005E+02    4.5412438E+06   -5.1875001E+04   -4.2642140E+04    4.5412438E+06    4.2642139E+04    4.5504766E+06
    3.54   700.000   -3.010E+02    4.5493771E+06   -4.9175801E+04   -4.0175539E+04    4.5493771E+06    4.0175538E+04    4.5583773E+06
    3.55   700.000   -3.016E+02    4.5636458E+06   -4.6128798E+04   -3.7419420E+04    4.5636458E+06    3.7419419E+04    4.5723552E+06
    3.56   700.000   -3.021E+02    4.5833596E+06   -4.2828082E+04   -3.4460858E+04    4.5833596E+06    3.4460857E+04    4.5917268E+06
    3.57   700.000   -3.026E+02    4.6079332E+06   -3.9377665E+04   -3.1393596E+04    4.6079332E+06    3.1393595E+04    4.6159172E+06
    3.58   700.000   -3.032E+02    4.6368748E+06   -3.5880871E+04   -2.8308470E+04    4.6368748E+06    2.8308470E+04    4.6444472E+06
    3.59   700.000   -3.037E+02    4.6697714E+06   -3.2430651E+04   -2.5284819E+04    4.6697714E+06    2.5284820E+04    4.6769172E+06
    3.60   700.000   -3.043E+02    4.7062679E+06   -2.9102140E+04   -2.2384040E+04    4.7062679E+06    2.2384042E+04    4.7129860E+06
    3.61   700.000   -3.048E+02    4.7460367E+06   -2.5948297E+04   -1.9646074E+04    4.7460367E+06    1.9646078E+04    4.7523389E+06
    3.62   700.000   -3.054E+02    4.7887372E+06   -2.2998931E+04   -1.7089065E+04    4.7887372E+06    1.7089072E+04    4.7946471E+06
    3.63   700.000   -3.059E+02    4.8339675E+06   -2.0262885E+04   -1.4711985E+04    4.8339675E+06    1.4711994E+04    4.8395184E+06
    3.64   700.000   -3.065E+02    4.8812155E+06   -1.7732731E+04   -1.2499598E+04    4.8812155E+06    1.2499609E+04    4.8864487E+06
    3.65   700.000   -3.070E+02    4.9298214E+06   -1.5391040E+04   -1.0428859E+04    4.9298214E+06    1.0428871E+04    4.9347835E+06
    3.66   700.000   -3.075E+02    4.9789636E+06   -1.3217126E+04   -8.4756878E+03    4.9789636E+06    8.4757027E+03    4.9837051E+06
    3.67   700.000   -3.080E+02    5.0276794E+06   -1.1193191E+04   -6.6210873E+03    5.0276794E+06    6.6211041E+03    5.0322515E+06
    3.68   700.000   -3.086E+02    5.0749225E+06   -9.3089619E+03   -4.8556816E+03    5.0749225E+06    4.8557002E+03    5.0793758E+06
    3.69   700.000   -3.091E+02    5.1196552E+06   -7.5641915E+03   -3.1820898E+03    5.1196552E+06    3.1821099E+03    5.1240373E+06
    3.70   700.000   -3.096E+02    5.1609603E+06   -5.9688145E+03   -1.6148924E+03    5.1609603E+06    1.6149138E+03    5.1653142E+06
    3.71   700.000   -3.101E+02    5.1981526E+06   -4.5409684E+03   -1.7839439E+02    5.1981526E+06    1.7841695E+02    5.2025152E+06
    3.72   700.000   -3.105E+02    5.2308672E+06   -3.3034857E+03    1.0972321E+03    5.2308672E+06   -1.0972087E+03    5.2352679E+06
    3.73   700.000   -3.110E+02    5.2591039E+06   -2.2797218E+03    2.1805768E+03    5.2591039E+06   -2.1805527E+03    5.2635642E+06
    3.74   700.000   -3.115E+02    5.2832184E+06   -1.4896420E+03    3.0434672E+03    5.2832184E+06   -3.0434425E+03    5.2877515E+06
    3.75   700.000   -3.119E+02    5.3038577E+06   -9.4693351E+02    3.6645027E+03    5.3038578E+06   -3.6644775E+03    5.3084692E+06
    3.76   700.000   -3.124E+02    5.3218517E+06   -6.5757678E+02    4.0311634E+03    5.3218517E+06   -4.0311378E+03    5.3265404E+06
    3.77   700.000   -3.128E+02    5.3380799E+06   -6.1990055E+02    4.1403938E+03    5.3380799E+06   -4.1403678E+03    5.3428402E+06
    3.78   700.000   -3.133E+02    5.3533378E+06   -8.2579164E+02    3.9979073E+03    5.3533378E+06   -3.9978809E+03    5.3581615E+06
    3.79   700.000   -3.137E+02    5.3682246E+06   -1.2625261E+03    3.6166671E+03    5.3682247E+06   -3.6166403E+03    5.3731039E+06
    3.80   700.000   -3.141E+02    5.3830712E+06   -1.9146919E+03    3.0150206E+03    5.3830713E+06   -3.0149934E+03    5.3880010E+06
    3.81   700.000   -3.145E+02    5.3979187E+06   -2.7658566E+03    2.2148240E+03    5.3979188E+06   -2.2147964E+03    5.4028995E+06
    3.82   700.000   -3.149E+02    5.4125494E+06   -3.7999107E+03    1.2396542E+03    5.4125495E+06   -1.2396264E+03    5.4175890E+06
    3.83   700.000   -3.153E+02    5.4265619E+06   -5.0022621E+03    1.1300342E+02    5.4265619E+06   -1.1297538E+02    5.4316772E+06
    3.84   700.000   -3.157E+02    5.4394767E+06   -6.3611570E+03   -1.1437353E+03    5.4394768E+06    1.1437635E+03    5.4446942E+06
    3.85   700.000   -3.161E+02    5.4508529E+06   -7.8693047E+03   -2.5135761E+03    5.4508530E+06    2.5136042E+03    5.4562087E+06
    3.86   700.000   -3.164E+02    5.4603947E+06   -9.5257233E+03   -3.9863869E+03    5.4603947E+06    3.9864149E+03    5.4659341E+06
    3.87   700.000   -3.168E+02    5.4680324E+06   -1.1337429E+04   -5.5610428E+03    5.4680325E+06    5.5610707E+03    5.4738089E+06
    3.88   700.000   -3.171E+02    5.4739654E+06   -1.3320406E+04   -7.2467011E+03    5.4739655E+06    7.2467286E+03    5.4800392E+06
    3.89   700.000   -3.175E+02    5.4786632E+06   -1.5499351E+04   -9.0626830E+03    5.4786633E+06    9.0627102E+03    5.4850999E+06
    3.90   700.000   -3.178E+02    5.4828276E+06   -1.7905956E+04   -1.1036752E+04    5.4828277E+06    1.1036778E+04    5.4896969E+06
    3.91   700.000   -3.182E+02    5.4873234E+06   -2.0575918E+04   -1.3201999E+04    5.4873235E+06    1.3202026E+04    5.4946974E+06
    3.92   700.000   -3.185E+02    5.4930867E+06   -2.3545217E+04   -1.5592943E+04    5.4930867E+06    1.5592969E+04    5.5010390E+06
    3.93   700.000   -3.188E+02    5.5010220E+06   -2.6846379E+04   -1.8241593E+04    5.5010221E+06    1.8241618E+04    5.5096269E+06
    3.94   700.000   -3.192E+02    5.5118975E+06   -3.0505330E+04   -2.1174172E+04    5.5118976E+06    2.1174197E+04    5.5212287E+06
    3.95   700.000   -3.195E+02    5.5262448E+06   -3.4539106E+04   -2.4408820E+04    5.5262449E+06    2.4408845E+04    5.5363752E+06
    3.96   700.000   -3.198E+02    5.5442722E+06   -3.8954298E+04   -2.7954193E+04    5.5442722E+06    2.7954218E+04    5.5552723E+06
    3.97   700.000   -3.201E+02    5.5657947E+06   -4.3745777E+04   -3.1808522E+04    5.5657947E+06    3.1808547E+04    5.5777320E+06
    3.98   700.000   -3.204E+02    5.5901869E+06   -4.8895184E+04   -3.5958592E+04    5.5901869E+06    3.5958617E+04    5.6031235E+06
    3.99   700.000   -3.207E+02    5.6163616E+06   -5.4368880E+04   -4.0378221E+04    5.6163616E+06    4.0378245E+04    5.6303523E+06
    4.00   700.000   -3.210E+02    5.6427784E+06   -6.0115493E+04   -4.5026266E+04    5.6427784E+06    4.5026290E+04    5.6578676E+06
    4.01   700.000   -3.213E+02    5.6674831E+06   -6.6063676E+04   -4.9844631E+04    5.6674831E+06    4.9844654E+04    5.6837021E+06
    4.02   700.000   -3.215E+02    5.6881813E+06   -7.2121116E+04   -5.4757146E+04    5.6881813E+06    5.4757169E+04    5.7055453E+06
    4.03   700.000   -3.218E+02    5.7023435E+06   -7.8175829E+04   -5.9670300E+04    5.7023434E+06    5.9670322E+04    5.7208490E+06
    4.04   700.000   -3.221E+02    5.7073408E+06   -8.4100483E+04   -6.4476544E+04    5.7073408E+06    6.4476565E+04    5.7269647E+06
    4.05   700.000   -3.224E+02    5.7006052E+06   -8.9759718E+04   -6.9060260E+04    5.7006052E+06    6.9060279E+04    5.7213046E+06
    4.06   700.000   -3.226E+02    5.6798046E+06   -9.5019642E+04   -7.3305746E+04    5.6798045E+06    7.3305763E+04    5.7015184E+06
    4.07   700.000   -3.229E+02    5.6430204E+06   -9.9757922E+04   -7.7105930E+04    5.6430203E+06    7.7105946E+04    5.6656723E+06
    4.08   700.000   -3.232E+02    5.5889124E+06   -1.0387266E+05   -8.0370218E+04    5.5889123E+06    8.0370232E+04    5.6124147E+06
    4.09   700.000   -3.234E+02    5.5168524E+06   -1.0728849E+05   -8.3030120E+04    5.5168523E+06    8.3030133E+04    5.5411107E+06
    4.10   700.000   -3.237E+02    5.4270111E+06   -1.0995909E+05   -8.5041895E+04    5.4270110E+06    8.5041906E+04    5.4519282E+06
    4.11   700.000   -3.239E+02    5.3203855E+06   -1.1186630E+05   -8.6386244E+04    5.3203854E+06    8.6386253E+04    5.3458655E+06
    4.12   700.000   -3.242E+02    5.1987609E+06   -1.1301668E+05   -8.7065785E+04    5.1987608E+06    8.7065793E+04    5.2247117E+06
    4.13   700.000   -3.245E+02    5.0646095E+06   -1.1343690E+05   -8.7101390E+04    5.0646095E+06    8.7101397E+04    5.0909450E+06
    4.14   700.000   -3.247E+02    4.9209375E+06   -1.1316915E+05   -8.6528388E+04    4.9209374E+06    8.6528393E+04    4.9475782E+06
    4.15   700.000   -3.250E+02    4.7710959E+06   -1.1226726E+05   -8.5393300E+04    4.7710958E+06    8.5393304E+04    4.7979698E+06
    4.16   700.000   -3.252E+02    4.6185783E+06   -1.1079366E+05   -8.3751249E+04    4.6185782E+06    8.3751251E+04    4.6456206E+06
    4.17   700.000   -3.255E+02    4.4668239E+06   -1.0881686E+05   -8.1663825E+04    4.4668238E+06    8.1663826E+04    4.4939769E+06
    4.18   700.000   -3.258E+02    4.3190450E+06   -1.0640892E+05   -7.9197053E+04    4.3190450E+06    7.9197053E+04    4.3462568E+06
    4.19   700.000   -3.260E+02    4.1780894E+06   -1.0364270E+05   -7.6419202E+04    4.1780894E+06    7.6419201E+04    4.2053129E+06
    4.20   700.000   -3.263E+02    4.0463447E+06   -1.0058904E+05   -7.3398473E+04    4.0463447E+06    7.3398470E+04    4.0735352E+06
    4.21   700.000   -3.265E+02    3.9256855E+06   -9.7314140E+04   -7.0200817E+04    3.9256854E+06    7.0200813E+04    3.9527988E+06
    4.22   700.000   -3.268E+02    3.8174603E+06   -9.3877889E+04   -6.6888248E+04    3.8174603E+06    6.6888242E+04    3.8444499E+06
    4.23   700.000   -3.271E+02    3.7225135E+06   -9.0333459E+04   -6.3517923E+04    3.7225134E+06    6.3517916E+04    3.7493290E+06
    4.24   700.000   -3.273E+02    3.6412348E+06   -8.6728246E+04   -6.0142028E+04    3.6412348E+06    6.0142019E+04    3.6678210E+06
    4.25   700.000   -3.276E+02    3.5736313E+06   -8.3105837E+04   -5.6808275E+04    3.5736312E+06    5.6808265E+04    3.5999288E+06
    4.26   700.000   -3.279E+02    3.5194120E+06   -7.9508414E+04   -5.3560647E+04    3.5194119E+06    5.3560635E+04    3.5453597E+06
    4.27   700.000   -3.282E+02    3.4780790E+06   -7.5978930E+04   -5.0440038E+04    3.4780790E+06    5.0440025E+04    3.5036179E+06
    4.28   700.000   -3.284E+02    3.4490152E+06   -7.2562556E+04   -4.7484584E+04    3.4490152E+06    4.7484570E+04    3.4740931E+06
    4.29   700.000   -3.287E+02    3.4315596E+06   -6.9307163E+04   -4.4729656E+04    3.4315596E+06    4.4729641E+04    3.4561371E+06
    4.30   700.000   -3.290E+02    3.4250644E+06   -6.6262889E+04   -4.2207652E+04    3.4250643E+06    4.2207635E+04    3.4491195E+06
    4.31   700.000   -3.293E+02    3.4289276E+06   -6.3481012E+04   -3.9947756E+04    3.4289276E+06    3.9947738E+04    3.4524608E+06
    4.32   700.000   -3.296E+02    3.4426014E+06   -6.1012419E+04   -3.7975774E+04    3.4426014E+06    3.7975754E+04    3.4656380E+06
    4.33   700.000   -3.299E+02    3.4655779E+06   -5.8905918E+04   -3.6314016E+04    3.4655778E+06    3.6313996E+04    3.4881697E+06
    4.34   700.000   -3.301E+02    3.4973592E+06   -5.7206562E+04   -3.4981137E+04    3.4973591E+06    3.4981115E+04    3.5195846E+06
    4.35   700.000   -3.304E+02    3.5374208E+06   -5.5954090E+04   -3.3991814E+04    3.5374207E+06    3.3991791E+04    3.5593830E+06
    4.36   700.000   -3.307E+02    3.5851766E+06   -5.5181601E+04   -3.3356240E+04    3.5851765E+06    3.3356217E+04    3.6070019E+06
    4.37   700.000   -3.310E+02    3.6399561E+06   -5.4914511E+04   -3.3079504E+04    3.6399561E+06    3.3079480E+04    3.6617911E+06
    4.38   700.000   -3.313E+02    3.7010011E+06   -5.5169892E+04   -3.3161025E+04    3.7010010E+06    3.3161000E+04    3.7230099E+06
    4.39   700.000   -3.317E+02    3.7674863E+06   -5.5956204E+04   -3.3594254E+04    3.7674863E+06    3.3594228E+04    3.7898482E+06
    4.40   700.000   -3.320E+02    3.8385660E+06   -5.7273405E+04   -3.4366816E+04    3.8385659E+06    3.4366791E+04    3.8614725E+06
    4.41   700.000   -3.323E+02    3.9134427E+06   -5.9113331E+04   -3.5461170E+04    3.9134427E+06    3.5461144E+04    3.9370948E+06
    4.42   700.000   -3.326E+02    3.9914517E+06   -6.1460182E+04   -3.6855737E+04    3.9914516E+06    3.6855712E+04    4.0160560E+06
    4.43   700.000   -3.329E+02    4.0721492E+06   -6.4290875E+04   -3.8526315E+04    4.0721491E+06    3.8526289E+04    4.0979137E+06
    4.44   700.000   -3.332E+02    4.1553948E+06   -6.7575049E+04   -4.0447451E+04    4.1553947E+06    4.0447426E+04    4.1825223E+06
    4.45   700.000   -3.335E+02    4.2414134E+06   -7.1274539E+04   -4.2593464E+04    4.2414133E+06    4.2593440E+04    4.2700944E+06
    4.46   700.000   -3.338E+02    4.3308305E+06   -7.5342340E+04   -4.4938839E+04    4.3308304E+06    4.4938815E+04    4.3612339E+06
    4.47   700.000   -3.342E+02    4.4246713E+06   -7.9721332E+04   -4.7457946E+04    4.4246713E+06    4.7457923E+04    4.4569346E+06
    4.48   700.000   -3.345E+02    4.5243242E+06   -8.4343287E+04   -5.0124287E+04    4.5243241E+06    5.0124264E+04    4.5585431E+06
    4.49   700.000   -3.348E+02    4.6314676E+06   -8.9128829E+04   -5.2909643E+04    4.6314675E+06    5.2909621E+04    4.6676867E+06
    4.50   700.000   -3.351E+02    4.7479663E+06   -9.3988993E+04   -5.5783604E+04    4.7479662E+06    5.5783582E+04    4.7861716E+06
    4.51   700.000   -3.354E+02    4.8757446E+06   -9.8828693E+04   -5.8713826E+04    4.8757445E+06    5.8713804E+04    4.9158594E+06
    4.52   700.000   -3.358E+02    5.0166442E+06   -1.0355197E+05   -6.1667105E+04    5.0166442E+06    6.1667084E+04    5.0585290E+06
    4.53   700.000   -3.361E+02    5.1722773E+06   -1.0806833E+05   -6.4611057E+04    5.1722772E+06    6.4611037E+04    5.2157345E+06
    4.54   700.000   -3.364E+02    5.3438843E+06   -1.1229905E+05   -6.7515911E+04    5.3438842E+06    6.7515891E+04    5.3886673E+06
    4.55   700.000   -3.368E+02    5.5322046E+06   -1.1618235E+05   -7.0355862E+04    5.5322046E+06    7.0355842E+04    5.5780311E+06
    4.56   700.000   -3.371E+02    5.7373691E+06   -1.1967632E+05   -7.3109577E+04    5.7373690E+06    7.3109557E+04    5.7839358E+06
    4.57   700.000   -3.374E+02    5.9588195E+06   -1.2275935E+05   -7.5759724E+04    5.9588195E+06    7.5759705E+04    6.0058191E+06
    4.58   700.000   -3.378E+02    6.1952629E+06   -1.2542823E+05   -7.8291823E+04    6.1952629E+06    7.8291804E+04    6.2423993E+06
    4.59   700.000   -3.381E+02    6.4446638E+06   -1.2769479E+05   -8.0692971E+04    6.4446638E+06    8.0692953E+04    6.4916656E+06
    4.60   700.000   -3.385E+02    6.7042798E+06   -1.2958223E+05   -8.2951126E+04    6.7042797E+06    8.2951108E+04    6.7509108E+06
    4.61   700.000   -3.388E+02    6.9707405E+06   -1.3112208E+05   -8.5055412E+04    6.9707404E+06    8.5055394E+04    7.0168071E+06
    4.62   700.000   -3.392E+02    7.2401713E+06   -1.3235243E+05   -8.6997603E+04    7.2401713E+06    8.6997586E+04    7.2855261E+06
    4.63   700.000   -3.396E+02    7.5083564E+06   -1.3331729E+05   -8.8774433E+04    7.5083563E+06    8.8774416E+04    7.5528992E+06
    4.64   700.000   -3.399E+02    7.7709348E+06   -1.3406664E+05   -9.0390005E+04    7.7709347E+06    9.0389989E+04    7.8146113E+06
    4.65   700.000   -3.403E+02    8.0236185E+06   -1.3465610E+05   -9.1857344E+04    8.0236184E+06    9.1857328E+04    8.0664172E+06
    4.66   700.000   -3.407E+02    8.2624169E+06   -1.3514528E+05   -9.3198112E+04    8.2624168E+06    9.3198096E+04    8.3043640E+06
    4.67   700.000   -3.411E+02    8.4838477E+06   -1.3559401E+05   -9.4439844E+04    8.4838477E+06    9.4439829E+04    8.5250018E+06
    4.68   700.000   -3.414E+02    8.6851136E+06   -1.3605623E+05   -9.5610577E+04    8.6851136E+06    9.5610562E+04    8.7255592E+06
    4.69   700.000   -3.418E+02    8.8642219E+06   -1.3657203E+05   -9.6731471E+04    8.8642218E+06    9.6731457E+04    8.9040624E+06
    4.70   700.000   -3.422E+02    9.0200326E+06   -1.3715913E+05   -9.7808744E+04    9.0200326E+06    9.7808729E+04    9.0593830E+06
    4.71   700.000   -3.426E+02    9.1522290E+06   -1.3780534E+05   -9.8826716E+04    9.1522290E+06    9.8826702E+04    9.1912076E+06
    4.72   700.000   -3.430E+02    9.2612174E+06   -1.3846409E+05   -9.9743855E+04    9.2612173E+06    9.9743841E+04    9.2999376E+06
    4.73   700.000   -3.434E+02    9.3479773E+06   -1.3905438E+05   -1.0049320E+05    9.3479773E+06    1.0049318E+05    9.3865385E+06
    4.74   700.000   -3.438E+02    9.4138919E+06   -1.3946582E+05   -1.0098765E+05    9.4138919E+06    1.0098763E+05    9.4523701E+06
    4.75   700.000   -3.442E+02    9.4605891E+06   -1.3956847E+05   -1.0112956E+05    9.4605891E+06    1.0112955E+05    9.4990280E+06
    4.76   700.000   -3.446E+02    9.4898204E+06   -1.3922611E+05   -1.0082303E+05    9.4898204E+06    1.0082302E+05    9.5282235E+06
    4.77   700.000   -3.450E+02    9.5033919E+06   -1.3831109E+05   -9.9986632E+04    9.5033919E+06    9.9986620E+04    9.5417163E+06
    4.78   700.000   -3.454E+02    9.5031479E+06   -1.3671849E+05   -9.8564585E+04    9.5031478E+06    9.8564574E+04    9.5413018E+06
    4.79   700.000   -3.457E+02    9.4909948E+06   -1.3437779E+05   -9.6534318E+04    9.4909947E+06    9.6534310E+04    9.5288382E+06
    4.80   700.000   -3.461E+02    9.4689444E+06   -1.3126033E+05   -9.3909537E+04    9.4689443E+06    9.3909530E+04    9.5062951E+06
    4.81   700.000   -3.465E+02    9.4391523E+06   -1.2738211E+05   -9.0738523E+04    9.4391523E+06    9.0738520E+04    9.4757959E+06
    4.82   700.000   -3.469E+02    9.4039323E+06   -1.2280155E+05   -8.7098325E+04    9.4039322E+06    8.7098325E+04    9.4396355E+06
    4.83   700.000   -3.473E+02    9.3657331E+06   -1.1761300E+05   -8.3086042E+04    9.3657331E+06    8.3086044E+04    9.4002600E+06
    4.84   700.000   -3.477E+02    9.3270759E+06   -1.1193715E+05   -7.8808767E+04    9.3270759E+06    7.8808772E+04    9.3602042E+06
    4.85   700.000   -3.480E+02    9.2904567E+06   -1.0590976E+05   -7.4373759E+04    9.2904566E+06    7.4373768E+04    9.3219926E+06
    4.86   700.000   -3.484E+02    9.2582249E+06   -9.9670410E+04   -6.9880180E+04    9.2582248E+06    6.9880192E+04    9.2880151E+06
    4.87   700.000   -3.488E+02    9.2324506E+06   -9.3352586E+04   -6.5413277E+04    9.2324506E+06    6.5413292E+04    9.2603899E+06
    4.88   700.000   -3.492E+02    9.2147934E+06   -8.7076100E+04   -6.1041354E+04    9.2147933E+06    6.1041372E+04    9.2408281E+06
    4.89   700.000   -3.495E+02    9.2063835E+06   -8.0942258E+04   -5.6815299E+04    9.2063834E+06    5.6815319E+04    9.2305104E+06
    4.90   700.000   -3.499E+02    9.2077274E+06   -7.5031560E+04   -5.2770004E+04    9.2077274E+06    5.2770026E+04    9.2299889E+06
    4.91   700.000   -3.503E+02    9.2186471E+06   -6.9403359E+04   -4.8926764E+04    9.2186471E+06    4.8926788E+04    9.2391237E+06
    4.92   700.000   -3.506E+02    9.2382615E+06   -6.4096670E+04   -4.5295775E+04    9.2382614E+06    4.5295800E+04    9.2570623E+06
    4.93   700.000   -3.510E+02    9.2650158E+06   -5.9131515E+04   -4.1878109E+04    9.2650158E+06    4.1878135E+04    9.2822692E+06
    4.94   700.000   -3.514E+02    9.2967595E+06   -5.4510469E+04   -3.8667025E+04    9.2967595E+06    3.8667051E+04    9.3126029E+06
    4.95   700.000   -3.518E+02    9.3308659E+06   -5.0220535E+04   -3.5648900E+04    9.3308659E+06    3.5648927E+04    9.3454375E+06
    4.96   700.000   -3.521E+02    9.3643822E+06   -4.6235740E+04   -3.2804368E+04    9.3643822E+06    3.2804395E+04    9.3778136E+06
    4.97   700.000   -3.525E+02    9.3941937E+06   -4.2520871E+04   -3.0110287E+04    9.3941937E+06    3.0110314E+04    9.4066043E+06
    4.98   700.000   -3.529E+02    9.4171853E+06   -3.9036560E+04   -2.7542874E+04    9.4171852E+06    2.7542903E+04    9.4286789E+06
    4.99   700.000   -3.533E+02    9.4303846E+06   -3.5745436E+04   -2.5081922E+04    9.4303846E+06    2.5081952E+04    9.4410481E+06
    5.00   700.000   -3.537E+02    9.4310766E+06   -3.2618607E+04   -2.2715481E+04    9.4310766E+06    2.2715511E+04    9.4409797E+06
# T(K) = 800.00   Npoints =    1001   V(cm^3) =  1.231E-20
   -5.00   800.000    3.722E+02    2.6881820E+06   -4.5553234E+04   -4.1707204E+04    2.6881820E+06    4.1707208E+04    2.6920280E+06
   -4.99   800.000    3.712E+02    2.7208372E+06   -4.5146910E+04   -4.1351896E+04    2.7208373E+06    4.1351899E+04    2.7246323E+06
   -4.98   800.000    3.703E+02    2.7513719E+06   -4.4593565E+04   -4.0866831E+04    2.7513720E+06    4.0866833E+04    2.7550987E+06
   -4.97   800.000    3.693E+02    2.7801266E+06   -4.3896440E+04   -4.0253469E+04    2.7801266E+06    4.0253470E+04    2.7837696E+06
   -4.96   800.000    3.684E+02    2.8073603E+06   -4.3058957E+04   -3.9513140E+04    2.8073603E+06    3.9513140E+04    2.8109061E+06
   -4.95   800.000    3.674E+02    2.8332379E+06   -4.2085378E+04   -3.8647789E+04    2.8332379E+06    3.8647788E+04    2.8366755E+06
   -4.94   800.000    3.665E+02    2.8578219E+06   -4.0981561E+04   -3.7660805E+04    2.8578219E+06    3.7660804E+04    2.8611427E+06
   -4.93   800.000    3.656E+02    2.8810713E+06   -3.9755693E+04   -3.6557843E+04    2.8810713E+06    3.6557841E+04    2.8842691E+06
   -4.92   800.000    3.647E+02    2.9028452E+06   -3.8418896E+04   -3.5347494E+04    2.9028453E+06    3.5347491E+04    2.9059167E+06
   -4.91   800.000    3.639E+02    2.9229135E+06   -3.6985586E+04   -3.4041725E+04    2.9229136E+06    3.4041721E+04    2.9258574E+06
   -4.90   800.000    3.630E+02    2.9409714E+06   -3.5473518E+04   -3.2655982E+04    2.9409715E+06    3.2655978E+04    2.9437890E+06
   -4.89   800.000    3.621E+02    2.9566589E+06   -3.3903459E+04   -3.1208939E+04    2.9566589E+06    3.1208934E+04    2.9593534E+06
   -4.88   800.000    3.613E+02    2.9695822E+06   -3.2298511E+04   -2.9721864E+04    2.9695822E+06    2.9721858E+04    2.9721589E+06
   -4.87   800.000    3.604E+02    2.9793369E+06   -3.0683109E+04   -2.8217673E+04    2.9793369E+06    2.8217667E+04    2.9818023E+06
   -4.86   800.000    3.596E+02    2.9855287E+06   -2.9081802E+04   -2.6719740E+04    2.9855288E+06    2.6719734E+04    2.9878908E+06
   -4.85   800.000    3.588E+02    2.9877933E+06   -2.7517932E+04   -2.5250596E+04    2.9877933E+06    2.5250590E+04    2.9900607E+06
   -4.84   800.000    3.580E+02    2.9858113E+06   -2.6012361E+04   -2.3830663E+04    2.9858113E+06    2.3830656E+04    2.9879930E+06
   -4.83   800.000    3.572E+02    2.9793199E+06   -2.4582385E+04   -2.2477156E+04    2.9793199E+06    2.2477149E+04    2.9814251E+06
   -4.82   800.000    3.564E+02    2.9681207E+06   -2.3240964E+04   -2.1203286E+04    2.9681207E+06    2.1203280E+04    2.9701584E+06
   -4.81   800.000    3.556E+02    2.9520836E+06   -2.1996337E+04   -2.0017840E+04    2.9520836E+06    2.0017834E+04    2.9540621E+06
   -4.80   800.000    3.548E+02    2.9311477E+06   -2.0852058E+04   -1.8925164E+04    2.9311477E+06    1.8925157E+04    2.9330746E+06
   -4.79   800.000    3.540E+02    2.9053207E+06   -1.9807420E+04   -1.7925522E+04    2.9053207E+06    1.7925516E+04    2.9072026E+06
   -4.78   800.000    3.533E+02    2.8746751E+06   -1.8858183E+04   -1.7015758E+04    2.8746751E+06    1.7015752E+04    2.8765175E+06
   -4.77   800.000    3.525E+02    2.8393441E+06   -1.7997488E+04   -1.6190136E+04    2.8393441E+06    1.6190129E+04    2.8411514E+06
   -4.76   800.000    3.517E+02    2.7995153E+06   -1.7216824E+04   -1.5441231E+04    2.7995153E+06    1.5441224E+04    2.8012909E+06
   -4.75   800.000    3.510E+02    2.7554235E+06   -1.6506926E+04   -1.4760772E+04    2.7554235E+06    1.4760765E+04    2.7571696E+06
   -4.74   800.000    3.502E+02    2.7073423E+06   -1.5858515E+04   -1.4140322E+04    2.7073423E+06    1.4140315E+04    2.7090605E+06
   -4.73   800.000    3.495E+02    2.6555751E+06   -1.5262815E+04   -1.3571768E+04    2.6555751E+06    1.3571760E+04    2.6572661E+06
   -4.72   800.000    3.488E+02    2.6004451E+06   -1.4711851E+04   -1.3047610E+04    2.6004451E+06    1.3047603E+04    2.6021093E+06
   -4.71   800.000    3.481E+02    2.5422859E+06   -1.4198559E+04   -1.2561077E+04    2.5422859E+06    1.2561069E+04    2.5439234E+06
   -4.70   800.000    3.473E+02    2.4814327E+06   -1.3716750E+04   -1.2106115E+04    2.4814326E+06    1.2106107E+04    2.4830433E+06
   -4.69   800.000    3.466E+02    2.4182140E+06   -1.3260995E+04   -1.1677321E+04    2.4182140E+06    1.1677313E+04    2.4197977E+06
   -4.68   800.000    3.459E+02    2.3529457E+06   -1.2826505E+04   -1.1269856E+04    2.3529457E+06    1.1269847E+04    2.3545024E+06
   -4.67   800.000    3.452E+02    2.2859263E+06   -1.2409018E+04   -1.0879379E+04    2.2859263E+06    1.0879371E+04    2.2874560E+06
   -4.66   800.000    3.446E+02    2.2174340E+06   -1.2004737E+04   -1.0502022E+04    2.2174340E+06    1.0502014E+04    2.2189367E+06
   -4.65   800.000    3.439E+02    2.1477257E+06   -1.1610313E+04   -1.0134384E+04    2.1477257E+06    1.0134375E+04    2.1492016E+06
   -4.64   800.000    3.432E+02    2.0770368E+06   -1.1222854E+04   -9.7735577E+03    2.0770368E+06    9.7735499E+03    2.0784861E+06
   -4.63   800.000    3.426E+02    2.0055827E+06   -1.0839938E+04   -9.4171469E+03    2.0055827E+06    9.4171392E+03    2.0070055E+06
   -4.62   800.000    3.419E+02    1.9335600E+06   -1.0459629E+04   -9.0632655E+03    1.9335600E+06    9.0632579E+03    1.9349563E+06
   -4.61   800.000    3.413E+02    1.8611489E+06   -1.0080454E+04   -8.7105171E+03    1.8611489E+06    8.7105098E+03    1.8625188E+06
   -4.60   800.000    3.407E+02    1.7885161E+06   -9.7013675E+03   -8.3579479E+03    1.7885161E+06    8.3579407E+03    1.7898595E+06
   -4.59   800.000    3.401E+02    1.7158180E+06   -9.3216880E+03   -8.0049830E+03    1.7158180E+06    8.0049759E+03    1.7171347E+06
   -4.58   800.000    3.395E+02    1.6432047E+06   -8.9410310E+03   -7.6513571E+03    1.6432047E+06    7.6513502E+03    1.6444944E+06
   -4.57   800.000    3.389E+02    1.5708247E+06   -8.5592381E+03   -7.2970478E+03    1.5708247E+06    7.2970410E+03    1.5720869E+06
   -4.56   800.000    3.384E+02    1.4988295E+06   -8.1763202E+03   -6.9422183E+03    1.4988295E+06    6.9422116E+03    1.5000636E+06
   -4.55   800.000    3.378E+02    1.4273782E+06   -7.7924154E+03   -6.5871739E+03    1.4273782E+06    6.5871673E+03    1.4285835E+06
   -4.54   800.000    3.373E+02    1.3566410E+06   -7.4077684E+03   -6.2323328E+03    1.3566411E+06    6.2323263E+03    1.3578165E+06
   -4.53   800.000    3.368E+02    1.2868018E+06   -7.0227305E+03   -5.8782129E+03    1.2868019E+06    5.8782064E+03    1.2879464E+06
   -4.52   800.000    3.363E+02    1.2180583E+06   -6.6377809E+03   -5.5254352E+03    1.2180583E+06    5.5254288E+03    1.2191706E+06
   -4.51   800.000    3.358E+02    1.1506205E+06   -6.2535653E+03   -5.1747427E+03    1.1506206E+06    5.1747364E+03    1.1516994E+06
   -4.50   800.000    3.353E+02    1.0847082E+06   -5.8709466E+03   -4.8270315E+03    1.0847082E+06    4.8270253E+03    1.0857521E+06
   -4.49   800.000    3.348E+02    1.0205455E+06   -5.4910552E+03   -4.4833863E+03    1.0205456E+06    4.4833803E+03    1.0215532E+06
   -4.48   800.000    3.344E+02    9.5835622E+05   -5.1153284E+03   -4.1451101E+03    9.5835626E+05    4.1451043E+03    9.5932648E+05
   -4.47   800.000    3.339E+02    8.9835781E+05   -4.7455244E+03   -3.8137367E+03    8.9835785E+05    3.8137312E+03    8.9928964E+05
   -4.46   800.000    3.334E+02    8.4075610E+05   -4.3837029E+03   -3.4910168E+03    8.4075614E+05    3.4910115E+03    8.4164883E+05
   -4.45   800.000    3.330E+02    7.8574040E+05   -4.0321677E+03   -3.1788727E+03    7.8574044E+05    3.1788677E+03    7.8659373E+05
   -4.44   800.000    3.325E+02    7.3347931E+05   -3.6933754E+03   -2.8793262E+03    7.3347935E+05    2.8793215E+03    7.3429339E+05
   -4.43   800.000    3.321E+02    6.8411734E+05   -3.3698211E+03   -2.5944054E+03    6.8411737E+05    2.5944010E+03    6.8489279E+05
   -4.42   800.000    3.316E+02    6.3777212E+05   -3.0639119E+03   -2.3260441E+03    6.3777216E+05    2.3260401E+03    6.3851003E+05
   -4.41   800.000    3.311E+02    5.9453221E+05   -2.7778469E+03   -2.0759872E+03    5.9453224E+05    2.0759835E+03    5.9523410E+05
   -4.40   800.000    3.307E+02    5.5445531E+05   -2.5135132E+03   -1.8457110E+03    5.5445534E+05    1.8457076E+03    5.5512314E+05
   -4.39   800.000    3.302E+02    5.1756701E+05   -2.2724086E+03   -1.6363683E+03    5.1756704E+05    1.6363652E+03    5.1820308E+05
   -4.38   800.000    3.297E+02    4.8385997E+05   -2.0555947E+03   -1.4487587E+03    4.8386000E+05    1.4487559E+03    4.8446684E+05
   -4.37   800.000    3.291E+02    4.5329377E+05   -1.8636800E+03   -1.2833248E+03    4.5329380E+05    1.2833222E+03    4.5387415E+05
   -4.36   800.000    3.286E+02    4.2579544E+05   -1.6968319E+03   -1.1401687E+03    4.2579547E+05    1.1401663E+03    4.2635214E+05
   -4.35   800.000    3.280E+02    4.0126105E+05   -1.5548101E+03   -1.0190862E+03    4.0126108E+05    1.0190840E+03    4.0179680E+05
   -4.34   800.000    3.274E+02    3.7955812E+05   -1.4370176E+03   -9.1961051E+02    3.7955814E+05    9.1960840E+02    3.8007555E+05
   -4.33   800.000    3.268E+02    3.6052921E+05   -1.3425631E+03   -8.4106246E+02    3.6052923E+05    8.4106044E+02    3.6103073E+05
   -4.32   800.000    3.261E+02    3.4399637E+05   -1.2703303E+03   -7.8260276E+02    3.4399639E+05    7.8260080E+02    3.4448412E+05
   -4.31   800.000    3.254E+02    3.2976638E+05   -1.2190484E+03   -7.4328298E+02    3.2976640E+05    7.4328106E+02    3.3024216E+05
   -4.30   800.000    3.246E+02    3.1763637E+05   -1.1873628E+03   -7.2209399E+02    3.1763638E+05    7.2209208E+02    3.1810165E+05
   -4.29   800.000    3.238E+02    3.0739958E+05   -1.1739008E+03   -7.1801056E+02    3.0739960E+05    7.1800866E+02    3.0785549E+05
   -4.28   800.000    3.229E+02    2.9885079E+05   -1.1773323E+03   -7.3003170E+02    2.9885080E+05    7.3002982E+02    2.9929810E+05
   -4.27   800.000    3.220E+02    2.9179092E+05   -1.1964211E+03   -7.5721627E+02    2.9179093E+05    7.5721440E+02    2.9223014E+05
   -4.26   800.000    3.210E+02    2.8603082E+05   -1.2300683E+03   -7.9871322E+02    2.8603083E+05    7.9871138E+02    2.8646219E+05
   -4.25   800.000    3.199E+02    2.8139369E+05   -1.2773423E+03   -8.5378533E+02    2.8139371E+05    8.5378353E+02    2.8181726E+05
   -4.24   800.000    3.188E+02    2.7771640E+05   -1.3374966E+03   -9.2182438E+02    2.7771641E+05    9.2182263E+02    2.7813209E+05
   -4.23   800.000    3.175E+02    2.7484962E+05   -1.4099720E+03   -1.0023549E+03    2.7484963E+05    1.0023533E+03    2.7525725E+05
   -4.22   800.000    3.163E+02    2.7265712E+05   -1.4943805E+03   -1.0950235E+03    2.7265713E+05    1.0950220E+03    2.7305649E+05
   -4.21   800.000    3.149E+02    2.7101455E+05   -1.5904708E+03   -1.1995703E+03    2.7101456E+05    1.1995688E+03    2.7140546E+05
   -4.20   800.000    3.134E+02    2.6980792E+05   -1.6980733E+03   -1.3157811E+03    2.6980793E+05    1.3157797E+03    2.7019022E+05
   -4.19   800.000    3.118E+02    2.6893237E+05   -1.8170275E+03   -1.4434229E+03    2.6893238E+05    1.4434217E+03    2.6930599E+05
   -4.18   800.000    3.101E+02    2.6829132E+05   -1.9470977E+03   -1.5821658E+03    2.6829133E+05    1.5821647E+03    2.6865626E+05
   -4.17   800.000    3.084E+02    2.6779619E+05   -2.0878865E+03   -1.7315031E+03    2.6779620E+05    1.7315022E+03    2.6815258E+05
   -4.16   800.000    3.065E+02    2.6736695E+05   -2.2387578E+03   -1.8906803E+03    2.6736696E+05    1.8906794E+03    2.6771504E+05
   -4.15   800.000    3.044E+02    2.6693326E+05   -2.3987838E+03   -2.0586470E+03    2.6693327E+05    2.0586463E+03    2.6727340E+05
   -4.14   800.000    3.023E+02    2.6643620E+05   -2.5667268E+03   -2.2340437E+03    2.6643620E+05    2.2340430E+03    2.6676889E+05
   -4.13   800.000    3.000E+02    2.6583032E+05   -2.7410621E+03   -2.4152277E+03    2.6583033E+05    2.4152272E+03    2.6615616E+05
   -4.12   800.000    2.977E+02    2.6508581E+05   -2.9200431E+03   -2.6003412E+03    2.6508582E+05    2.6003407E+03    2.6540552E+05
   -4.11   800.000    2.951E+02    2.6419035E+05   -3.1018002E+03   -2.7874106E+03    2.6419036E+05    2.7874102E+03    2.6450475E+05
   -4.10   800.000    2.925E+02    2.6315054E+05   -3.2844611E+03   -2.9744679E+03    2.6315055E+05    2.9744675E+03    2.6346054E+05
   -4.09   800.000    2.897E+02    2.6199251E+05   -3.4662769E+03   -3.1596755E+03    2.6199252E+05    3.1596751E+03    2.6229912E+05
   -4.08   800.000    2.868E+02    2.6076162E+05   -3.6457361E+03   -3.3414393E+03    2.6076163E+05    3.3414389E+03    2.6106593E+05
   -4.07   800.000    2.838E+02    2.5952108E+05   -3.8216541E+03   -3.5184972E+03    2.5952109E+05    3.5184968E+03    2.5982425E+05
   -4.06   800.000    2.807E+02    2.5834958E+05   -3.9932297E+03   -3.6899747E+03    2.5834958E+05    3.6899741E+03    2.5865284E+05
   -4.05   800.000    2.774E+02    2.5733791E+05   -4.1600644E+03   -3.8554043E+03    2.5733791E+05    3.8554037E+03    2.5764257E+05
   -4.04   800.000    2.741E+02    2.5658495E+05   -4.3221507E+03   -4.0147145E+03    2.5658496E+05    4.0147138E+03    2.5689239E+05
   -4.03   800.000    2.707E+02    2.5619314E+05   -4.4798335E+03   -4.1681931E+03    2.5619315E+05    4.1681923E+03    2.5650479E+05
   -4.02   800.000    2.671E+02    2.5626379E+05   -4.6337568E+03   -4.3164371E+03    2.5626380E+05    4.3164363E+03    2.5658112E+05
   -4.01   800.000    2.635E+02    2.5689268E+05   -4.7848044E+03   -4.4602972E+03    2.5689268E+05    4.4602964E+03    2.5721719E+05
   -4.00   800.000    2.599E+02    2.5816609E+05   -4.9340417E+03   -4.6008238E+03    2.5816610E+05    4.6008229E+03    2.5849932E+05
   -3.99   800.000    2.562E+02    2.6015770E+05   -5.0826635E+03   -4.7392194E+03    2.6015770E+05    4.7392184E+03    2.6050114E+05
   -3.98   800.000    2.524E+02    2.6292634E+05   -5.2319470E+03   -4.8767957E+03    2.6292634E+05    4.8767947E+03    2.6328150E+05
   -3.97   800.000    2.486E+02    2.6651494E+05   -5.3832092E+03   -5.0149343E+03    2.6651494E+05    5.0149333E+03    2.6688322E+05
   -3.96   800.000    2.447E+02    2.7095037E+05   -5.5377647E+03   -5.1550452E+03    2.7095037E+05    5.1550442E+03    2.7133309E+05
   -3.95   800.000    2.409E+02    2.7624433E+05   -5.6968808E+03   -5.2985215E+03    2.7624433E+05    5.2985204E+03    2.7664269E+05
   -3.94   800.000    2.370E+02    2.8239496E+05   -5.8617283E+03   -5.4466870E+03    2.8239496E+05    5.4466860E+03    2.8281000E+05
   -3.93   800.000    2.330E+02    2.8938893E+05   -6.0333315E+03   -5.6007399E+03    2.8938893E+05    5.6007389E+03    2.8982152E+05
   -3.92   800.000    2.291E+02    2.9720383E+05   -6.2125170E+03   -5.7616941E+03    2.9720382E+05    5.7616930E+03    2.9765465E+05
   -3.91   800.000    2.252E+02    3.0581040E+05   -6.3998707E+03   -5.9303251E+03    3.0581039E+05    5.9303240E+03    3.0627994E+05
   -3.90   800.000    2.213E+02    3.1517445E+05   -6.5957047E+03   -6.1071269E+03    3.1517445E+05    6.1071258E+03    3.1566302E+05
   -3.89   800.000    2.174E+02    3.2525819E+05   -6.8000408E+03   -6.2922844E+03    3.2525818E+05    6.2922833E+03    3.2576594E+05
   -3.88   800.000    2.135E+02    3.3602076E+05   -7.0126121E+03   -6.4856658E+03    3.3602075E+05    6.4856647E+03    3.3654770E+05
   -3.87   800.000    2.097E+02    3.4741804E+05   -7.2328836E+03   -6.6868369E+03    3.4741803E+05    6.6868357E+03    3.4796408E+05
   -3.86   800.000    2.059E+02    3.5940167E+05   -7.4600870E+03   -6.8950947E+03    3.5940166E+05    6.8950934E+03    3.5996666E+05
   -3.85   800.000    2.021E+02    3.7191751E+05   -7.6932668E+03   -7.1095160E+03    3.7191750E+05    7.1095147E+03    3.7250125E+05
   -3.84   800.000    1.984E+02    3.8490379E+05   -7.9313286E+03   -7.3290144E+03    3.8490378E+05    7.3290130E+03    3.8550610E+05
   -3.83   800.000    1.948E+02    3.9828927E+05   -8.1730815E+03   -7.5523951E+03    3.9828926E+05    7.5523936E+03    3.9890995E+05
   -3.82   800.000    1.913E+02    4.1199175E+05   -8.4172684E+03   -7.7784009E+03    4.1199174E+05    7.7783992E+03    4.1263060E+05
   -3.81   800.000    1.878E+02    4.2591719E+05   -8.6625760E+03   -8.0057395E+03    4.2591718E+05    8.0057377E+03    4.2657402E+05
   -3.80   800.000    1.845E+02    4.3995978E+05   -8.9076255E+03   -8.2330904E+03    4.3995977E+05    8.2330885E+03    4.4063430E+05
   -3.79   800.000    1.812E+02    4.5400285E+05   -9.1509431E+03   -8.4590900E+03    4.5400284E+05    8.4590879E+03    4.5469469E+05
   -3.78   800.000    1.781E+02    4.6792092E+05   -9.3909200E+03   -8.6823011E+03    4.6792090E+05    8.6822988E+03    4.6862952E+05
   -3.77   800.000    1.750E+02    4.8158250E+05   -9.6257712E+03   -8.9011774E+03    4.8158248E+05    8.9011750E+03    4.8230708E+05
   -3.76   800.000    1.721E+02    4.9485364E+05   -9.8535080E+03   -9.1140354E+03    4.9485362E+05    9.1140328E+03    4.9559310E+05
   -3.75   800.000    1.693E+02    5.0760195E+05   -1.0071935E+04   -9.3190457E+03    5.0760193E+05    9.3190429E+03    5.0835482E+05
   -3.74   800.000    1.666E+02    5.1970081E+05   -1.0278686E+04   -9.5142541E+03    5.1970079E+05    9.5142512E+03    5.2046522E+05
   -3.73   800.000    1.641E+02    5.3103356E+05   -1.0471292E+04   -9.6976350E+03    5.3103355E+05    9.6976320E+03    5.3180721E+05
   -3.72   800.000    1.617E+02    5.4149742E+05   -1.0647289E+04   -9.8671723E+03    5.4149741E+05    9.8671693E+03    5.4227753E+05
   -3.71   800.000    1.594E+02    5.5100670E+05   -1.0804340E+04   -1.0020955E+04    5.5100668E+05    1.0020952E+04    5.5179007E+05
   -3.70   800.000    1.572E+02    5.5949512E+05   -1.0940364E+04   -1.0157273E+04    5.5949510E+05    1.0157270E+04    5.6027819E+05
   -3.69   800.000    1.551E+02    5.6691694E+05   -1.1053644E+04   -1.0274694E+04    5.6691692E+05    1.0274691E+04    5.6769587E+05
   -3.68   800.000    1.531E+02    5.7324669E+05   -1.1142908E+04   -1.0372114E+04    5.7324667E+05    1.0372111E+04    5.7401746E+05
   -3.67   800.000    1.512E+02    5.7847761E+05   -1.1207373E+04   -1.0448777E+04    5.7847759E+05    1.0448774E+04    5.7923619E+05
   -3.66   800.000    1.495E+02    5.8261911E+05   -1.1246760E+04   -1.0504272E+04    5.8261910E+05    1.0504269E+04    5.8336159E+05
   -3.65   800.000    1.478E+02    5.8569376E+05   -1.1261291E+04   -1.0538531E+04    5.8569375E+05    1.0538528E+04    5.8641651E+05
   -3.64   800.000    1.462E+02    5.8773438E+05   -1.1251696E+04   -1.0551834E+04    5.8773437E+05    1.0551832E+04    5.8843423E+05
   -3.63   800.000    1.447E+02    5.8878204E+05   -1.1219223E+04   -1.0544845E+04    5.8878203E+05    1.0544844E+04    5.8945640E+05
   -3.62   800.000    1.432E+02    5.8888518E+05   -1.1165684E+04   -1.0518685E+04    5.8888516E+05    1.0518684E+04    5.8953216E+05
   -3.61   800.000    1.418E+02    5.8810015E+05   -1.1093508E+04   -1.0475016E+04    5.8810013E+05    1.0475015E+04    5.8871863E+05
   -3.60   800.000    1.405E+02    5.8649283E+05   -1.1005796E+04   -1.0416142E+04    5.8649282E+05    1.0416141E+04    5.8708248E+05
   -3.59   800.000    1.392E+02    5.8414088E+05   -1.0906362E+04   -1.0345079E+04    5.8414087E+05    1.0345079E+04    5.8470215E+05
   -3.58   800.000    1.380E+02    5.8113575E+05   -1.0799713E+04   -1.0265580E+04    5.8113574E+05    1.0265580E+04    5.8166987E+05
   -3.57   800.000    1.368E+02    5.7758395E+05   -1.0690983E+04   -1.0182085E+04    5.7758394E+05    1.0182085E+04    5.7809284E+05
   -3.56   800.000    1.356E+02    5.7360678E+05   -1.0585792E+04   -1.0099607E+04    5.7360678E+05    1.0099608E+04    5.7409296E+05
   -3.55   800.000    1.345E+02    5.6933832E+05   -1.0490040E+04   -1.0023540E+04    5.6933831E+05    1.0023541E+04    5.6980481E+05
   -3.54   800.000    1.334E+02    5.6492154E+05   -1.0409675E+04   -9.9594210E+03    5.6492153E+05    9.9594217E+03    5.6537179E+05
   -3.53   800.000    1.323E+02    5.6050299E+05   -1.0350431E+04   -9.9126761E+03    5.6050299E+05    9.9126769E+03    5.6094074E+05
   -3.52   800.000    1.313E+02    5.5622642E+05   -1.0317585E+04   -9.8883693E+03    5.5622642E+05    9.8883703E+03    5.5665563E+05
   -3.51   800.000    1.302E+02    5.5222608E+05   -1.0315755E+04   -9.8909847E+03    5.5222608E+05    9.8909857E+03    5.5265085E+05
   -3.50   800.000    1.292E+02    5.4862048E+05   -1.0348730E+04   -9.9242538E+03    5.4862048E+05    9.9242548E+03    5.4904495E+05
   -3.49   800.000    1.282E+02    5.4550713E+05   -1.0419370E+04   -9.9910333E+03    5.4550713E+05    9.9910343E+03    5.4593546E+05
   -3.48   800.000    1.272E+02    5.4295903E+05   -1.0529531E+04   -1.0093228E+04    5.4295903E+05    1.0093229E+04    5.4339533E+05
   -3.47   800.000    1.262E+02    5.4102310E+05   -1.0680042E+04   -1.0231753E+04    5.4102310E+05    1.0231754E+04    5.4147139E+05
   -3.46   800.000    1.252E+02    5.3972087E+05   -1.0870698E+04   -1.0406516E+04    5.3972087E+05    1.0406517E+04    5.4018505E+05
   -3.45   800.000    1.242E+02    5.3905119E+05   -1.1100269E+04   -1.0616427E+04    5.3905119E+05    1.0616428E+04    5.3953503E+05
   -3.44   800.000    1.232E+02    5.3899484E+05   -1.1366512E+04   -1.0859406E+04    5.3899484E+05    1.0859406E+04    5.3950195E+05
   -3.43   800.000    1.222E+02    5.3952034E+05   -1.1666182E+04   -1.1132397E+04    5.3952034E+05    1.1132398E+04    5.4005412E+05
   -3.42   800.000    1.211E+02    5.4059036E+05   -1.1995042E+04   -1.1431390E+04    5.4059035E+05    1.1431390E+04    5.4115400E+05
   -3.41   800.000    1.201E+02    5.4216797E+05   -1.2347862E+04   -1.1751419E+04    5.4216796E+05    1.1751419E+04    5.4276441E+05
   -3.40   800.000    1.191E+02    5.4422199E+05   -1.2718407E+04   -1.2086572E+04    5.4422198E+05    1.2086572E+04    5.4485382E+05
   -3.39   800.000    1.181E+02    5.4673082E+05   -1.3099429E+04   -1.2429992E+04    5.4673081E+05    1.2429992E+04    5.4740025E+05
   -3.38   800.000    1.171E+02    5.4968447E+05   -1.3482685E+04   -1.2773897E+04    5.4968446E+05    1.2773896E+04    5.5039325E+05
   -3.37   800.000    1.161E+02    5.5308473E+05   -1.3858984E+04   -1.3109633E+04    5.5308472E+05    1.3109632E+04    5.5383407E+05
   -3.36   800.000    1.151E+02    5.5694364E+05   -1.4218318E+04   -1.3427802E+04    5.5694363E+05    1.3427801E+04    5.5773415E+05
   -3.35   800.000    1.140E+02    5.6128077E+05   -1.4550100E+04   -1.3718481E+04    5.6128076E+05    1.3718480E+04    5.6211238E+05
   -3.34   800.000    1.130E+02    5.6611991E+05   -1.4843522E+04   -1.3971563E+04    5.6611990E+05    1.3971562E+04    5.6699186E+05
   -3.33   800.000    1.120E+02    5.7148570E+05   -1.5088050E+04   -1.4177226E+04    5.7148569E+05    1.4177225E+04    5.7239651E+05
   -3.32   800.000    1.109E+02    5.7740077E+05   -1.5274025E+04   -1.4326501E+04    5.7740076E+05    1.4326500E+04    5.7834828E+05
   -3.31   800.000    1.099E+02    5.8388376E+05   -1.5393330E+04   -1.4411911E+04    5.8388374E+05    1.4411910E+04    5.8486516E+05
   -3.30   800.000    1.088E+02    5.9094820E+05   -1.5440042E+04   -1.4428102E+04    5.9094819E+05    1.4428100E+04    5.9196013E+05
   -3.29   800.000    1.078E+02    5.9860241E+05   -1.5411007E+04   -1.4372384E+04    5.9860240E+05    1.4372382E+04    5.9964102E+05
   -3.28   800.000    1.067E+02    6.0684983E+05   -1.5306231E+04   -1.4245121E+04    6.0684981E+05    1.4245118E+04    6.0791092E+05
   -3.27   800.000    1.056E+02    6.1568965E+05   -1.5129053E+04   -1.4049888E+04    6.1568963E+05    1.4049885E+04    6.1676880E+05
   -3.26   800.000    1.045E+02    6.2511724E+05   -1.4886048E+04   -1.3793371E+04    6.2511722E+05    1.3793368E+04    6.2620990E+05
   -3.25   800.000    1.034E+02    6.3512394E+05   -1.4586665E+04   -1.3485010E+04    6.3512392E+05    1.3485007E+04    6.3622558E+05
   -3.24   800.000    1.024E+02    6.4569613E+05   -1.4242644E+04   -1.3136424E+04    6.4569611E+05    1.3136421E+04    6.4680233E+05
   -3.23   800.000    1.013E+02    6.5681342E+05   -1.3867272E+04   -1.2760675E+04    6.5681340E+05    1.2760671E+04    6.5792000E+05
   -3.22   800.000    1.002E+02    6.6844623E+05   -1.3474560E+04   -1.2371463E+04    6.6844622E+05    1.2371459E+04    6.6954931E+05
   -3.21   800.000    9.905E+01    6.8055301E+05   -1.3078428E+04   -1.1982329E+04    6.8055300E+05    1.1982325E+04    6.8164909E+05
   -3.20   800.000    9.794E+01    6.9307760E+05   -1.2691969E+04   -1.1605944E+04    6.9307758E+05    1.1605939E+04    6.9416361E+05
   -3.19   800.000    9.681E+01    7.0594718E+05   -1.2326853E+04   -1.1253536E+04    7.0594717E+05    1.1253530E+04    7.0702049E+05
   -3.18   800.000    9.568E+01    7.1907136E+05   -1.1992902E+04   -1.0934486E+04    7.1907134E+05    1.0934480E+04    7.2012976E+05
   -3.17   800.000    9.455E+01    7.3234251E+05   -1.1697851E+04   -1.0656117E+04    7.3234249E+05    1.0656111E+04    7.3338423E+05
   -3.16   800.000    9.340E+01    7.4563774E+05   -1.1447300E+04   -1.0423654E+04    7.4563773E+05    1.0423648E+04    7.4666138E+05
   -3.15   800.000    9.224E+01    7.5882230E+05   -1.1244818E+04   -1.0240344E+04    7.5882229E+05    1.0240337E+04    7.5982676E+05
   -3.14   800.000    9.106E+01    7.7175407E+05   -1.1092196E+04   -1.0107706E+04    7.7175405E+05    1.0107699E+04    7.7273854E+05
   -3.13   800.000    8.987E+01    7.8428893E+05   -1.0989793E+04   -1.0025883E+04    7.8428892E+05    1.0025876E+04    7.8525283E+05
   -3.12   800.000    8.867E+01    7.9628636E+05   -1.0936946E+04   -9.9940278E+03    7.9628635E+05    9.9940204E+03    7.9722927E+05
   -3.11   800.000    8.744E+01    8.0761467E+05   -1.0932375E+04   -1.0010707E+04    8.0761466E+05    1.0010699E+04    8.0853633E+05
   -3.10   800.000    8.620E+01    8.1815554E+05   -1.0974552E+04   -1.0074246E+04    8.1815553E+05    1.0074238E+04    8.1905584E+05
   -3.09   800.000    8.493E+01    8.2780744E+05   -1.1061975E+04   -1.0182992E+04    8.2780743E+05    1.0182984E+04    8.2868641E+05
   -3.08   800.000    8.363E+01    8.3648768E+05   -1.1193309E+04   -1.0335441E+04    8.3648767E+05    1.0335434E+04    8.3734554E+05
   -3.07   800.000    8.231E+01    8.4413320E+05   -1.1367384E+04   -1.0530233E+04    8.4413319E+05    1.0530225E+04    8.4497034E+05
   -3.06   800.000    8.096E+01    8.5070014E+05   -1.1583058E+04   -1.0766007E+04    8.5070014E+05    1.0765999E+04    8.5151719E+05
   -3.05   800.000    7.958E+01    8.5616253E+05   -1.1838963E+04   -1.1041164E+04    8.5616253E+05    1.1041157E+04    8.5696033E+05
   -3.04   800.000    7.816E+01    8.6051039E+05   -1.2133212E+04   -1.1353576E+04    8.6051038E+05    1.1353569E+04    8.6129002E+05
   -3.03   800.000    7.671E+01    8.6374756E+05   -1.2463095E+04   -1.1700305E+04    8.6374756E+05    1.1700298E+04    8.6451035E+05
   -3.02   800.000    7.522E+01    8.6588971E+05   -1.2824860E+04   -1.2077401E+04    8.6588971E+05    1.2077394E+04    8.6663716E+05
   -3.01   800.000    7.369E+01    8.6696243E+05   -1.3213609E+04   -1.2479816E+04    8.6696243E+05    1.2479809E+04    8.6769622E+05
   -3.00   800.000    7.212E+01    8.6699982E+05   -1.3623343E+04   -1.2901464E+04    8.6699982E+05    1.2901457E+04    8.6772170E+05
   -2.99   800.000    7.051E+01    8.6604340E+05   -1.4047163E+04   -1.3335432E+04    8.6604340E+05    1.3335426E+04    8.6675513E+05
   -2.98   800.000    6.886E+01    8.6414132E+05   -1.4477599E+04   -1.3774319E+04    8.6414131E+05    1.3774313E+04    8.6484459E+05
   -2.97   800.000    6.717E+01    8.6134773E+05   -1.4907032E+04   -1.4210648E+04    8.6134772E+05    1.4210642E+04    8.6204411E+05
   -2.96   800.000    6.545E+01    8.5772223E+05   -1.5328137E+04   -1.4637303E+04    8.5772222E+05    1.4637298E+04    8.5841306E+05
   -2.95   800.000    6.369E+01    8.5332914E+05   -1.5734295E+04   -1.5047926E+04    8.5332913E+05    1.5047921E+04    8.5401550E+05
   -2.94   800.000    6.190E+01    8.4823655E+05   -1.6119910E+04   -1.5437212E+04    8.4823654E+05    1.5437206E+04    8.4891924E+05
   -2.93   800.000    6.008E+01    8.4251516E+05   -1.6480582E+04   -1.5801059E+04    8.4251515E+05    1.5801054E+04    8.4319468E+05
   -2.92   800.000    5.823E+01    8.3623672E+05   -1.6813130E+04   -1.6136570E+04    8.3623671E+05    1.6136564E+04    8.3691327E+05
   -2.91   800.000    5.637E+01    8.2947224E+05   -1.7115442E+04   -1.6441881E+04    8.2947223E+05    1.6441876E+04    8.3014579E+05
   -2.90   800.000    5.450E+01    8.2228998E+05   -1.7386219E+04   -1.6715891E+04    8.2228997E+05    1.6715886E+04    8.2296030E+05
   -2.89   800.000    5.262E+01    8.1475337E+05   -1.7624623E+04   -1.6957895E+04    8.1475336E+05    1.6957890E+04    8.1542009E+05
   -2.88   800.000    5.074E+01    8.0691882E+05   -1.7829908E+04   -1.7167217E+04    8.0691881E+05    1.7167213E+04    8.0758150E+05
   -2.87   800.000    4.887E+01    7.9883388E+05   -1.8001087E+04   -1.7342877E+04    7.9883387E+05    1.7342872E+04    7.9949208E+05
   -2.86   800.000    4.701E+01    7.9053565E+05   -1.8136667E+04   -1.7483329E+04    7.9053563E+05    1.7483324E+04    7.9118897E+05
   -2.85   800.000    4.518E+01    7.8204970E+05   -1.8234495E+04   -1.7586320E+04    7.8204969E+05    1.7586315E+04    7.8269786E+05
   -2.84   800.000    4.337E+01    7.7338965E+05   -1.8291716E+04   -1.7648861E+04    7.7338964E+05    1.7648856E+04    7.7403249E+05
   -2.83   800.000    4.160E+01    7.6455732E+05   -1.8304857E+04   -1.7667320E+04    7.6455731E+05    1.7667315E+04    7.6519485E+05
   -2.82   800.000    3.987E+01    7.5554342E+05   -1.8270026E+04   -1.7637630E+04    7.5554341E+05    1.7637626E+04    7.5617581E+05
   -2.81   800.000    3.818E+01    7.4632870E+05   -1.8183206E+04   -1.7555596E+04    7.4632869E+05    1.7555592E+04    7.4695630E+05
   -2.80   800.000    3.655E+01    7.3688529E+05   -1.8040638E+04   -1.7417278E+04    7.3688528E+05    1.7417274E+04    7.3750864E+05
   -2.79   800.000    3.497E+01    7.2717824E+05   -1.7839249E+04   -1.7219431E+04    7.2717823E+05    1.7219427E+04    7.2779805E+05
   -2.78   800.000    3.345E+01    7.1716696E+05   -1.7577111E+04   -1.6959962E+04    7.1716695E+05    1.6959958E+04    7.1778410E+05
   -2.77   800.000    3.199E+01    7.0680681E+05   -1.7253864E+04   -1.6638361E+04    7.0680680E+05    1.6638357E+04    7.0742230E+05
   -2.76   800.000    3.059E+01    6.9605069E+05   -1.6871076E+04   -1.6256062E+04    6.9605068E+05    1.6256058E+04    6.9666570E+05
   -2.75   800.000    2.925E+01    6.8485087E+05   -1.6432482E+04   -1.5816683E+04    6.8485086E+05    1.5816679E+04    6.8546666E+05
   -2.74   800.000    2.797E+01    6.7316108E+05   -1.5944051E+04   -1.5326100E+04    6.7316107E+05    1.5326097E+04    6.7377902E+05
   -2.73   800.000    2.676E+01    6.6093905E+05   -1.5413872E+04   -1.4792336E+04    6.6093904E+05    1.4792333E+04    6.6156058E+05
   -2.72   800.000    2.560E+01    6.4814931E+05   -1.4851840E+04   -1.4225248E+04    6.4814930E+05    1.4225246E+04    6.4877589E+05
   -2.71   800.000    2.451E+01    6.3476635E+05   -1.4269160E+04   -1.3636044E+04    6.3476634E+05    1.3636042E+04    6.3539946E+05
   -2.70   800.000    2.347E+01    6.2077788E+05   -1.3677725E+04   -1.3036662E+04    6.2077787E+05    1.3036660E+04    6.2141893E+05
   -2.69   800.000    2.249E+01    6.0618792E+05   -1.3089419E+04   -1.2439088E+04    6.0618791E+05    1.2439086E+04    6.0683825E+05
   -2.68   800.000    2.156E+01    5.9101954E+05   -1.2515431E+04   -1.1854673E+04    5.9101953E+05    1.1854672E+04    5.9168029E+05
   -2.67   800.000    2.067E+01    5.7531673E+05   -1.1965649E+04   -1.1293538E+04    5.7531673E+05    1.1293537E+04    5.7598884E+05
   -2.66   800.000    1.984E+01    5.5914538E+05   -1.1448206E+04   -1.0764119E+04    5.5914537E+05    1.0764118E+04    5.5982946E+05
   -2.65   800.000    1.905E+01    5.4259279E+05   -1.0969214E+04   -1.0272902E+04    5.4259279E+05    1.0272901E+04    5.4328910E+05
   -2.64   800.000    1.830E+01    5.2576594E+05   -1.0532705E+04   -9.8243465E+03    5.2576593E+05    9.8243460E+03    5.2647429E+05
   -2.63   800.000    1.759E+01    5.0878823E+05   -1.0140760E+04   -9.4209980E+03    5.0878823E+05    9.4209977E+03    5.0950799E+05
   -2.62   800.000    1.691E+01    4.9179514E+05   -9.7937776E+03   -9.0637265E+03    4.9179513E+05    9.0637264E+03    4.9252518E+05
   -2.61   800.000    1.627E+01    4.7492880E+05   -9.4908287E+03   -8.7520436E+03    4.7492879E+05    8.7520437E+03    4.7566758E+05
   -2.60   800.000    1.566E+01    4.5833218E+05   -9.2300181E+03   -8.4844249E+03    4.5833217E+05    8.4844252E+03    4.5907777E+05
   -2.59   800.000    1.507E+01    4.4214303E+05   -9.0087925E+03   -8.2585799E+03    4.4214302E+05    8.2585803E+03    4.4289324E+05
   -2.58   800.000    1.452E+01    4.2648824E+05   -8.8241469E+03   -8.0716281E+03    4.2648824E+05    8.0716287E+03    4.2724076E+05
   -2.57   800.000    1.398E+01    4.1147887E+05   -8.6727088E+03   -7.9201630E+03    4.1147887E+05    7.9201637E+03    4.1223142E+05
   -2.56   800.000    1.347E+01    3.9720618E+05   -8.5507012E+03   -7.8002112E+03    3.9720618E+05    7.8002121E+03    3.9795667E+05
   -2.55   800.000    1.298E+01    3.8373884E+05   -8.4538139E+03   -7.7071152E+03    3.8373884E+05    7.7071162E+03    3.8448553E+05
   -2.54   800.000    1.252E+01    3.7112131E+05   -8.3770271E+03   -7.6353837E+03    3.7112131E+05    7.6353848E+03    3.7186295E+05
   -2.53   800.000    1.207E+01    3.5937333E+05   -8.3144400E+03   -7.5785604E+03    3.5937333E+05    7.5785617E+03    3.6010921E+05
   -2.52   800.000    1.163E+01    3.4849027E+05   -8.2591586E+03   -7.5291586E+03    3.4849027E+05    7.5291601E+03    3.4922027E+05
   -2.51   800.000    1.122E+01    3.3844410E+05   -8.2032860E+03   -7.4787028E+03    3.3844409E+05    7.4787044E+03    3.3916868E+05
   -2.50   800.000    1.082E+01    3.2918478E+05   -8.1380479E+03   -7.4179015E+03    3.2918477E+05    7.4179032E+03    3.2990492E+05
   -2.49   800.000    1.043E+01    3.2064190E+05   -8.0540645E+03   -7.3369624E+03    3.2064189E+05    7.3369643E+03    3.2135899E+05
   -2.48   800.000    1.006E+01    3.1272649E+05   -7.9417662E+03   -7.2260396E+03    3.1272648E+05    7.2260415E+03    3.1344220E+05
   -2.47   800.000    9.702E+00    3.0533314E+05   -7.7919291E+03   -7.0757902E+03    3.0533313E+05    7.0757922E+03    3.0604927E+05
   -2.46   800.000    9.358E+00    2.9834252E+05   -7.5962920E+03   -6.8779997E+03    2.9834251E+05    6.8780018E+03    2.9906080E+05
   -2.45   800.000    9.027E+00    2.9162453E+05   -7.3482018E+03   -6.6262235E+03    2.9162452E+05    6.6262256E+03    2.9234650E+05
   -2.44   800.000    8.708E+00    2.8504219E+05   -7.0432221E+03   -6.3163814E+03    2.8504217E+05    6.3163835E+03    2.8576902E+05
   -2.43   800.000    8.401E+00    2.7845638E+05   -6.6796371E+03   -5.9472375E+03    2.7845637E+05    5.9472396E+03    2.7918877E+05
   -2.42   800.000    8.107E+00    2.7173127E+05   -6.2587832E+03   -5.5207021E+03    2.7173126E+05    5.5207042E+03    2.7246934E+05
   -2.41   800.000    7.824E+00    2.6474022E+05   -5.7851549E+03   -5.0419029E+03    2.6474021E+05    5.0419048E+03    2.6548346E+05
   -2.40   800.000    7.553E+00    2.5737166E+05   -5.2662569E+03   -4.5190005E+03    2.5737165E+05    4.5190024E+03    2.5811891E+05
   -2.39   800.000    7.293E+00    2.4953470E+05   -4.7122030E+03   -3.9627522E+03    2.4953469E+05    3.9627539E+03    2.5028414E+05
   -2.38   800.000    7.044E+00    2.4116371E+05   -4.1350980E+03   -3.3858595E+03    2.4116370E+05    3.3858611E+03    2.4191294E+05
   -2.37   800.000    6.807E+00    2.3222174E+05   -3.5482650E+03   -2.8021667E+03    2.3222173E+05    2.8021682E+03    2.3296782E+05
   -2.36   800.000    6.581E+00    2.2270228E+05   -2.9653986E+03   -2.2257897E+03    2.2270227E+05    2.2257910E+03    2.2344187E+05
   -2.35   800.000    6.366E+00    2.1262936E+05   -2.3997286E+03   -1.6702603E+03    2.1262935E+05    1.6702615E+03    2.1335882E+05
   -2.34   800.000    6.163E+00    2.0205592E+05   -1.8632693E+03   -1.1477636E+03    2.0205591E+05    1.1477647E+03    2.0277141E+05
   -2.33   800.000    5.971E+00    1.9106056E+05   -1.3662139E+03   -6.6852531E+02    1.9106055E+05    6.6852622E+02    1.9175823E+05
   -2.32   800.000    5.790E+00    1.7974303E+05   -9.1651042E+02   -2.4038742E+02    1.7974301E+05    2.4038821E+02    1.8041914E+05
   -2.31   800.000    5.621E+00    1.6821868E+05   -5.1963531E+02    1.3141223E+02    1.6821867E+05   -1.3141156E+02    1.6886972E+05
   -2.30   800.000    5.462E+00    1.5661237E+05   -1.7855864E+02    4.4426255E+02    1.5661236E+05   -4.4426199E+02    1.5723518E+05
   -2.29   800.000    5.315E+00    1.4505220E+05    1.0611982E+02    6.9802468E+02    1.4505219E+05   -6.9802421E+02    1.4564410E+05
   -2.28   800.000    5.178E+00    1.3366355E+05    3.3589734E+02    8.9473518E+02    1.3366354E+05   -8.9473478E+02    1.3422238E+05
   -2.27   800.000    5.051E+00    1.2256379E+05    5.1399856E+02    1.0382090E+03    1.2256378E+05   -1.0382087E+03    1.2308799E+05
   -2.26   800.000    4.935E+00    1.1185794E+05    6.4495265E+02    1.1335876E+03    1.1185793E+05   -1.1335873E+03    1.1234657E+05
   -2.25   800.000    4.828E+00    1.0163558E+05    7.3415844E+02    1.1868751E+03    1.0163557E+05   -1.1868749E+03    1.0208829E+05
   -2.24   800.000    4.730E+00    9.1968858E+04    7.8747254E+02    1.2045009E+03    9.1968852E+04   -1.2045007E+03    9.2385880E+04
   -2.23   800.000    4.641E+00    8.2911867E+04    8.1084733E+02    1.1929360E+03    8.2911861E+04   -1.1929358E+03    8.3293950E+04
   -2.22   800.000    4.560E+00    7.4500976E+04    8.1003574E+02    1.1583822E+03    7.4500971E+04   -1.1583821E+03    7.4849317E+04
   -2.21   800.000    4.486E+00    6.6756095E+04    7.9037056E+02    1.1065425E+03    6.6756091E+04   -1.1065424E+03    6.7072263E+04
   -2.20   800.000    4.419E+00    5.9682556E+04    7.5661737E+02    1.0424703E+03    5.9682551E+04   -1.0424702E+03    5.9968404E+04
   -2.19   800.000    4.358E+00    5.3273395E+04    7.1289427E+02    9.7049163E+02    5.3273391E+04   -9.7049158E+02    5.3530989E+04
   -2.18   800.000    4.302E+00    4.7511819E+04    6.6264735E+02    8.9418663E+02    4.7511816E+04   -8.9418658E+02    4.7743355E+04
   -2.17   800.000    4.250E+00    4.2373663E+04    6.0866900E+02    8.1641680E+02    4.2373661E+04   -8.1641677E+02    4.2581408E+04
   -2.16   800.000    4.203E+00    3.7829707E+04    5.5314624E+02    7.3938402E+02    3.7829705E+04   -7.3938399E+02    3.8015943E+04
   -2.15   800.000    4.159E+00    3.3847760E+04    4.9772725E+02    6.6470818E+02    3.3847759E+04   -6.6470816E+02    3.4014739E+04
   -2.14   800.000    4.117E+00    3.0394457E+04    4.4359665E+02    5.9351328E+02    3.0394456E+04   -5.9351326E+02    3.0544373E+04
   -2.13   800.000    4.078E+00    2.7436751E+04    3.9155209E+02    5.2651392E+02    2.7436750E+04   -5.2651390E+02    2.7571712E+04
   -2.12   800.000    4.040E+00    2.4943104E+04    3.4207705E+02    4.6409669E+02    2.4943103E+04   -4.6409667E+02    2.5065123E+04
   -2.11   800.000    4.002E+00    2.2884408E+04    2.9540672E+02    4.0639330E+02    2.2884407E+04   -4.0639328E+02    2.2995393E+04
   -2.10   800.000    3.964E+00    2.1234651E+04    2.5158541E+02    3.5334367E+02    2.1234650E+04   -3.5334365E+02    2.1336408E+04
   -2.09   800.000    3.926E+00    1.9971384E+04    2.1051512E+02    3.0474875E+02    1.9971384E+04   -3.0474873E+02    2.0065617E+04
   -2.08   800.000    3.887E+00    1.9076003E+04    1.7199555E+02    2.6031344E+02    1.9076003E+04   -2.6031342E+02    1.9164321E+04
   -2.07   800.000    3.846E+00    1.8533886E+04    1.3575651E+02    2.1968081E+02    1.8533887E+04   -2.1968078E+02    1.8617811E+04
   -2.06   800.000    3.802E+00    1.8334413E+04    1.0148391E+02    1.8245859E+02    1.8334414E+04   -1.8245856E+02    1.8415389E+04
   -2.05   800.000    3.755E+00    1.8470878E+04    6.8840363E+01    1.4823956E+02    1.8470879E+04   -1.4823953E+02    1.8550278E+04
   -2.04   800.000    3.705E+00    1.8940318E+04    3.7481792E+01    1.1661685E+02    1.8940319E+04   -1.1661681E+02    1.9019454E+04
   -2.03   800.000    3.650E+00    1.9743276E+04    7.0710006E+00    8.7195444E+01    1.9743277E+04   -8.7195394E+01    1.9823402E+04
   -2.02   800.000    3.590E+00    2.0883489E+04   -2.2710883E+01    5.9600916E+01    2.0883491E+04   -5.9600856E+01    2.0965803E+04
   -2.01   800.000    3.524E+00    2.2367539E+04   -5.2154328E+01    3.3486054E+01    2.2367542E+04   -3.3485982E+01    2.2453182E+04
   -2.00   800.000    3.452E+00    2.4204463E+04   -8.1512233E+01    8.5361416E+00    2.4204466E+04   -8.5360566E+00    2.4294514E+04
   -1.99   800.000    3.373E+00    2.6405350E+04   -1.1099141E+02   -1.5526761E+01    2.6405353E+04    1.5526862E+01    2.6500818E+04
   -1.98   800.000    3.288E+00    2.8982957E+04   -1.4074477E+02   -3.8940277E+01    2.8982960E+04    3.8940397E+01    2.9084764E+04
   -1.97   800.000    3.194E+00    3.1951367E+04   -1.7086441E+02   -6.1898848E+01    3.1951370E+04    6.1898990E+01    3.2060336E+04
   -1.96   800.000    3.093E+00    3.5325743E+04   -2.0137623E+02   -8.4551650E+01    3.5325747E+04    8.4551818E+01    3.5442571E+04
   -1.95   800.000    2.984E+00    3.9122206E+04   -2.3223672E+02   -1.0700149E+02    3.9122211E+04    1.0700169E+02    3.9247446E+04
   -1.94   800.000    2.867E+00    4.3357890E+04   -2.6333268E+02   -1.2930497E+02    4.3357895E+04    1.2930520E+02    4.3491923E+04
   -1.93   800.000    2.742E+00    4.8051182E+04   -2.9448464E+02   -1.5147415E+02    4.8051187E+04    1.5147441E+02    4.8194198E+04
   -1.92   800.000    2.610E+00    5.3222173E+04   -3.2545455E+02   -1.7347993E+02    5.3222179E+04    1.7348023E+02    5.3374154E+04
   -1.91   800.000    2.470E+00    5.8893290E+04   -3.5595785E+02   -1.9525724E+02    5.8893296E+04    1.9525758E+02    5.9053997E+04
   -1.90   800.000    2.325E+00    6.5090055E+04   -3.8567964E+02   -2.1671167E+02    6.5090062E+04    2.1671205E+02    6.5259030E+04
   -1.89   800.000    2.174E+00    7.1841907E+04   -4.1429402E+02   -2.3772748E+02    7.1841915E+04    2.3772790E+02    7.2018481E+04
   -1.88   800.000    2.018E+00    7.9182965E+04   -4.4148519E+02   -2.5817607E+02    7.9182973E+04    2.5817653E+02    7.9366282E+04
   -1.87   800.000    1.858E+00    8.7152628E+04   -4.6696828E+02   -2.7792433E+02    8.7152637E+04    2.7792482E+02    8.7341680E+04
   -1.86   800.000    1.695E+00    9.5795895E+04   -4.9050795E+02   -2.9684190E+02    9.5795904E+04    2.9684243E+02    9.5989570E+04
   -1.85   800.000    1.530E+00    1.0516330E+05   -5.1193236E+02   -3.1480653E+02    1.0516331E+05    3.1480709E+02    1.0536043E+05
   -1.84   800.000    1.365E+00    1.1531040E+05   -5.3114084E+02   -3.3170667E+02    1.1531041E+05    3.3170724E+02    1.1550984E+05
   -1.83   800.000    1.199E+00    1.2629679E+05   -5.4810417E+02   -3.4744066E+02    1.2629680E+05    3.4744125E+02    1.2649747E+05
   -1.82   800.000    1.034E+00    1.3818469E+05   -5.6285689E+02   -3.6191251E+02    1.3818470E+05    3.6191311E+02    1.3838564E+05
   -1.81   800.000    8.699E-01    1.5103710E+05   -5.7548266E+02   -3.7502408E+02    1.5103711E+05    3.7502468E+02    1.5123756E+05
   -1.80   800.000    7.080E-01    1.6491579E+05   -5.8609386E+02   -3.8666453E+02    1.6491580E+05    3.8666514E+02    1.6511523E+05
   -1.79   800.000    5.484E-01    1.7987917E+05   -5.9480796E+02   -3.9669790E+02    1.7987919E+05    3.9669851E+02    1.8007730E+05
   -1.78   800.000    3.913E-01    1.9598021E+05   -6.0172298E+02   -4.0494993E+02    1.9598022E+05    4.0495055E+02    1.9617700E+05
   -1.77   800.000    2.371E-01    2.1326465E+05   -6.0689467E+02   -4.1119581E+02    2.1326466E+05    4.1119647E+02    2.1346036E+05
   -1.76   800.000    8.557E-02    2.3176963E+05   -6.1031761E+02   -4.1515000E+02    2.3176965E+05    4.1515070E+02    2.3196481E+05
   -1.75   800.000   -6.319E-02    2.5152276E+05   -6.1191216E+02   -4.1645973E+02    2.5152278E+05    4.1646051E+02    2.5171823E+05
   -1.74   800.000   -2.094E-01    2.7254172E+05   -6.1151868E+02   -4.1470366E+02    2.7254173E+05    4.1470456E+02    2.7273855E+05
   -1.73   800.000   -3.532E-01    2.9483421E+05   -6.0890061E+02   -4.0939726E+02    2.9483422E+05    4.0939833E+02    2.9503373E+05
   -1.72   800.000   -4.950E-01    3.1839830E+05   -6.0375744E+02   -4.0000649E+02    3.1839831E+05    4.0000779E+02    3.1860206E+05
   -1.71   800.000   -6.350E-01    3.4322274E+05   -5.9574914E+02   -3.8597145E+02    3.4322276E+05    3.8597304E+02    3.4343254E+05
   -1.70   800.000   -7.736E-01    3.6928724E+05   -5.8453292E+02   -3.6674136E+02    3.6928726E+05    3.6674333E+02    3.6950505E+05
   -1.69   800.000   -9.113E-01    3.9656238E+05   -5.6981291E+02   -3.4182153E+02    3.9656240E+05    3.4182395E+02    3.9679039E+05
   -1.68   800.000   -1.048E+00    4.2500927E+05   -5.5140227E+02   -3.1083185E+02    4.2500929E+05    3.1083482E+02    4.2524986E+05
   -1.67   800.000   -1.185E+00    4.5457878E+05   -5.2929534E+02   -2.7357510E+02    4.5457880E+05    2.7357869E+02    4.5483452E+05
   -1.66   800.000   -1.322E+00    4.8521072E+05   -5.0374594E+02   -2.3011099E+02    4.8521074E+05    2.3011531E+02    4.8548438E+05
   -1.65   800.000   -1.459E+00    5.1683309E+05   -4.7534536E+02   -1.8083065E+02    5.1683311E+05    1.8083576E+02    5.1712762E+05
   -1.64   800.000   -1.597E+00    5.4936166E+05   -4.4509208E+02   -1.2652377E+02    5.4936169E+05    1.2652975E+02    5.4968025E+05
   -1.63   800.000   -1.736E+00    5.8270032E+05   -4.1444350E+02   -6.8430352E+01    5.8270034E+05    6.8437262E+01    5.8304635E+05
   -1.62   800.000   -1.876E+00    6.1674201E+05   -3.8534023E+02   -8.2679508E+00    6.1674204E+05    8.2758267E+00    6.1711911E+05
   -1.61   800.000   -2.018E+00    6.5137052E+05   -3.6019360E+02    5.1773596E+01    6.5137054E+05   -5.1764738E+01    6.5178251E+05
   -1.60   800.000   -2.161E+00    6.8646259E+05   -3.4182985E+02    1.0907630E+02    6.8646262E+05   -1.0906647E+02    6.8691352E+05
   -1.59   800.000   -2.306E+00    7.2189027E+05   -3.3338729E+02    1.6068048E+02    7.2189030E+05   -1.6066972E+02    7.2238436E+05
   -1.58   800.000   -2.453E+00    7.5752283E+05   -3.3816784E+02    2.0341298E+02    7.5752286E+05   -2.0340136E+02    7.5806444E+05
   -1.57   800.000   -2.602E+00    7.9322811E+05   -3.5944991E+02    2.3405135E+02    7.9322815E+05   -2.3403896E+02    7.9382165E+05
   -1.56   800.000   -2.754E+00    8.2887292E+05   -4.0027580E+02    2.4951288E+02    8.2887295E+05   -2.4949985E+02    8.2952274E+05
   -1.55   800.000   -2.908E+00    8.6432264E+05   -4.6323281E+02    2.4705175E+02    8.6432268E+05   -2.4703825E+02    8.6503296E+05
   -1.54   800.000   -3.064E+00    8.9944032E+05   -5.5025100E+02    2.2444420E+02    8.9944036E+05   -2.2443039E+02    9.0021506E+05
   -1.53   800.000   -3.223E+00    9.3408572E+05   -6.6244106E+02    1.8014071E+02    9.3408576E+05   -1.8012678E+02    9.3492834E+05
   -1.52   800.000   -3.384E+00    9.6811497E+05   -7.9999202E+02    1.1336809E+02    9.6811501E+05   -1.1335425E+02    9.6902837E+05
   -1.51   800.000   -3.548E+00    1.0013816E+06   -9.6213994E+02    2.4171333E+01    1.0013816E+06   -2.4157778E+01    1.0023679E+06
   -1.50   800.000   -3.715E+00    1.0337389E+06   -1.1472080E+03   -8.6604951E+01    1.0337390E+06    8.6618012E+01    1.0347996E+06
   -1.49   800.000   -3.884E+00    1.0650450E+06   -1.3527076E+03   -2.1738629E+02    1.0650450E+06    2.1739867E+02    1.0661803E+06
   -1.48   800.000   -4.056E+00    1.0951681E+06   -1.5754815E+03   -3.6597388E+02    1.0951682E+06    3.6598540E+02    1.0963777E+06
   -1.47   800.000   -4.231E+00    1.1239949E+06   -1.8118689E+03   -5.2966837E+02    1.1239949E+06    5.2967888E+02    1.1252771E+06
   -1.46   800.000   -4.409E+00    1.1514369E+06   -2.0578725E+03   -7.0539707E+02    1.1514370E+06    7.0540644E+02    1.1527895E+06
   -1.45   800.000   -4.590E+00    1.1774386E+06   -2.3093146E+03   -8.8983391E+02    1.1774387E+06    8.8984207E+02    1.1788582E+06
   -1.44   800.000   -4.773E+00    1.2019820E+06   -2.5619729E+03   -1.0795056E+03    1.2019820E+06    1.0795124E+03    1.2034645E+06
   -1.43   800.000   -4.959E+00    1.2250899E+06   -2.8116915E+03   -1.2708777E+03    1.2250900E+06    1.2708833E+03    1.2266308E+06
   -1.42   800.000   -5.147E+00    1.2468269E+06   -3.0544600E+03   -1.4604145E+03    1.2468270E+06    1.4604189E+03    1.2484210E+06
   -1.41   800.000   -5.339E+00    1.2672968E+06   -3.2864548E+03   -1.6446018E+03    1.2672968E+06    1.6446051E+03    1.2689387E+06
   -1.40   800.000   -5.533E+00    1.2866386E+06   -3.5040338E+03   -1.8199254E+03    1.2866386E+06    1.8199276E+03    1.2883227E+06
   -1.39   800.000   -5.729E+00    1.3050210E+06   -3.7036816E+03   -1.9828013E+03    1.3050210E+06    1.9828027E+03    1.3067419E+06
   -1.38   800.000   -5.929E+00    1.3226362E+06   -3.8819096E+03   -2.1294658E+03    1.3226363E+06    2.1294665E+03    1.3243887E+06
   -1.37   800.000   -6.131E+00    1.3396941E+06   -4.0351255E+03   -2.2558452E+03    1.3396941E+06    2.2558454E+03    1.3414734E+06
   -1.36   800.000   -6.336E+00    1.3564170E+06   -4.1595011E+03   -2.3574398E+03    1.3564171E+06    2.3574398E+03    1.3582191E+06
   -1.35   800.000   -6.544E+00    1.3730360E+06   -4.2508720E+03   -2.4292591E+03    1.3730361E+06    2.4292592E+03    1.3748577E+06
   -1.34   800.000   -6.754E+00    1.3897876E+06   -4.3047041E+03   -2.4658457E+03    1.3897877E+06    2.4658460E+03    1.3916265E+06
   -1.33   800.000   -6.967E+00    1.4069112E+06   -4.3161537E+03   -2.4614100E+03    1.4069112E+06    2.4614109E+03    1.4087659E+06
   -1.32   800.000   -7.183E+00    1.4246463E+06   -4.2802318E+03   -2.4100803E+03    1.4246463E+06    2.4100818E+03    1.4265165E+06
   -1.31   800.000   -7.402E+00    1.4432297E+06   -4.1920662E+03   -2.3062494E+03    1.4432297E+06    2.3062520E+03    1.4451155E+06
   -1.30   800.000   -7.624E+00    1.4628909E+06   -4.0472380E+03   -2.1449847E+03    1.4628909E+06    2.1449884E+03    1.4647932E+06
   -1.29   800.000   -7.848E+00    1.4838476E+06   -3.8421606E+03   -1.9224545E+03    1.4838477E+06    1.9224597E+03    1.4857674E+06
   -1.28   800.000   -8.076E+00    1.5063003E+06   -3.5744661E+03   -1.6363314E+03    1.5063003E+06    1.6363381E+03    1.5082385E+06
   -1.27   800.000   -8.305E+00    1.5304260E+06   -3.2433699E+03   -1.2861338E+03    1.5304261E+06    1.2861421E+03    1.5323833E+06
   -1.26   800.000   -8.538E+00    1.5563733E+06   -2.8499894E+03   -8.7348777E+02    1.5563734E+06    8.7349794E+02    1.5583499E+06
   -1.25   800.000   -8.773E+00    1.5842568E+06   -2.3976019E+03   -4.0229696E+02    1.5842569E+06    4.0230899E+02    1.5862522E+06
   -1.24   800.000   -9.011E+00    1.6141527E+06   -1.8918256E+03    1.2118134E+02    1.6141528E+06   -1.2116741E+02    1.6161658E+06
   -1.23   800.000   -9.252E+00    1.6460949E+06   -1.3407112E+03    6.8835256E+02    1.6460949E+06   -6.8833674E+02    1.6481240E+06
   -1.22   800.000   -9.495E+00    1.6800711E+06   -7.5472486E+02    1.2883945E+03    1.6800711E+06   -1.2883769E+03    1.6821143E+06
   -1.21   800.000   -9.740E+00    1.7160197E+06   -1.4660826E+02    1.9084621E+03    1.7160197E+06   -1.9084428E+03    1.7180748E+06
   -1.20   800.000   -9.988E+00    1.7538264E+06    4.6890020E+02    2.5339896E+03    1.7538264E+06   -2.5339687E+03    1.7558915E+06
   -1.19   800.000   -1.024E+01    1.7933214E+06    1.0754851E+03    3.1490899E+03    1.7933214E+06   -3.1490675E+03    1.7953950E+06
   -1.18   800.000   -1.049E+01    1.8342774E+06    1.6558070E+03    3.7370456E+03    1.8342775E+06   -3.7370221E+03    1.8363587E+06
   -1.17   800.000   -1.075E+01    1.8764091E+06    2.1921654E+03    4.2808781E+03    1.8764091E+06   -4.2808536E+03    1.8784978E+06
   -1.16   800.000   -1.101E+01    1.9193750E+06    2.6672336E+03    4.7639712E+03    1.9193750E+06   -4.7639461E+03    1.9214717E+06
   -1.15   800.000   -1.127E+01    1.9627833E+06    3.0648191E+03    5.1707216E+03    1.9627834E+06   -5.1706960E+03    1.9648893E+06
   -1.14   800.000   -1.154E+01    2.0062025E+06    3.3705962E+03    5.4871780E+03    2.0062025E+06   -5.4871523E+03    2.0083191E+06
   -1.13   800.000   -1.180E+01    2.0491761E+06    3.5727591E+03    5.7016361E+03    2.0491761E+06   -5.7016105E+03    2.0513050E+06
   -1.12   800.000   -1.207E+01    2.0912439E+06    3.6625543E+03    5.8051541E+03    2.0912440E+06   -5.8051288E+03    2.0933866E+06
   -1.11   800.000   -1.235E+01    2.1319664E+06    3.6346628E+03    5.7919663E+03    2.1319664E+06   -5.7919416E+03    2.1341237E+06
   -1.10   800.000   -1.263E+01    2.1709509E+06    3.4874222E+03    5.6597839E+03    2.1709509E+06   -5.6597599E+03    2.1731233E+06
   -1.09   800.000   -1.291E+01    2.2078776E+06    3.2228992E+03    5.4099788E+03    2.2078776E+06   -5.4099558E+03    2.2100647E+06
   -1.08   800.000   -1.319E+01    2.2425221E+06    2.8468311E+03    5.0476620E+03    2.2425221E+06   -5.0476401E+03    2.2447229E+06
   -1.07   800.000   -1.347E+01    2.2747705E+06    2.3684658E+03    4.5816594E+03    2.2747705E+06   -4.5816387E+03    2.2769837E+06
   -1.06   800.000   -1.376E+01    2.3046270E+06    1.8003197E+03    4.0243893E+03    2.3046270E+06   -4.0243700E+03    2.3068511E+06
   -1.05   800.000   -1.405E+01    2.3322106E+06    1.1578650E+03    3.3916329E+03    2.3322106E+06   -3.3916151E+03    2.3344443E+06
   -1.04   800.000   -1.435E+01    2.3577418E+06    4.5914215E+02    2.7021791E+03    2.3577417E+06   -2.7021629E+03    2.3599848E+06
   -1.03   800.000   -1.465E+01    2.3815202E+06   -2.7571169E+02    1.9773321E+03    2.3815202E+06   -1.9773175E+03    2.3837732E+06
   -1.02   800.000   -1.495E+01    2.4038955E+06   -1.0250243E+03    1.2402735E+03    2.4038955E+06   -1.2402606E+03    2.4061608E+06
   -1.01   800.000   -1.525E+01    2.4252342E+06   -1.7662342E+03    5.1529913E+02    2.4252342E+06   -5.1528792E+02    2.4275157E+06
   -1.00   800.000   -1.555E+01    2.4458864E+06   -2.4765954E+03   -1.7303111E+02    2.4458864E+06    1.7304065E+02    2.4481900E+06
   -0.99   800.000   -1.586E+01    2.4661562E+06   -3.1339001E+03   -8.0077154E+02    2.4661562E+06    8.0077944E+02    2.4684893E+06
   -0.98   800.000   -1.617E+01    2.4862790E+06   -3.7171763E+03   -1.3454341E+03    2.4862790E+06    1.3454404E+03    2.4886507E+06
   -0.97   800.000   -1.649E+01    2.5064089E+06   -4.2073228E+03   -1.7867474E+03    2.5064089E+06    1.7867523E+03    2.5088294E+06
   -0.96   800.000   -1.680E+01    2.5266169E+06   -4.5876716E+03   -2.1073069E+03    2.5266169E+06    2.1073104E+03    2.5290972E+06
   -0.95   800.000   -1.713E+01    2.5469013E+06   -4.8444887E+03   -2.2931229E+03    2.5469013E+06    2.2931252E+03    2.5494527E+06
   -0.94   800.000   -1.745E+01    2.5672079E+06   -4.9674450E+03   -2.3340945E+03    2.5672079E+06    2.3340957E+03    2.5698412E+06
   -0.93   800.000   -1.778E+01    2.5874578E+06   -4.9500876E+03   -2.2244426E+03    2.5874578E+06    2.2244428E+03    2.5901834E+06
   -0.92   800.000   -1.811E+01    2.6075797E+06   -4.7903202E+03   -1.9631155E+03    2.6075797E+06    1.9631147E+03    2.6104070E+06
   -0.91   800.000   -1.844E+01    2.6275415E+06   -4.4908581E+03   -1.5541439E+03    2.6275415E+06    1.5541423E+03    2.6304782E+06
   -0.90   800.000   -1.878E+01    2.6473771E+06   -4.0595835E+03   -1.0068812E+03    2.6473771E+06    1.0068789E+03    2.6504298E+06
   -0.89   800.000   -1.912E+01    2.6672065E+06   -3.5096899E+03   -3.3603309E+02    2.6672065E+06    3.3603014E+02    2.6703802E+06
   -0.88   800.000   -1.947E+01    2.6872432E+06   -2.8595030E+03    4.3862304E+02    2.6872432E+06   -4.3862660E+02    2.6905414E+06
   -0.87   800.000   -1.982E+01    2.7077909E+06   -2.1318943E+03    1.2928997E+03    2.7077909E+06   -1.2929039E+03    2.7112157E+06
   -0.86   800.000   -2.017E+01    2.7292275E+06   -1.3532660E+03    2.1992576E+03    2.7292275E+06   -2.1992623E+03    2.7327801E+06
   -0.85   800.000   -2.053E+01    2.7519798E+06   -5.5215973E+02    3.1282023E+03    2.7519798E+06   -3.1282075E+03    2.7556601E+06
   -0.84   800.000   -2.089E+01    2.7764898E+06    2.4237907E+02    4.0498937E+03    2.7764898E+06   -4.0498995E+03    2.7802973E+06
   -0.83   800.000   -2.125E+01    2.8031792E+06    1.0025018E+03    4.9357968E+03    2.8031792E+06   -4.9358032E+03    2.8071125E+06
   -0.82   800.000   -2.162E+01    2.8324129E+06    1.7031247E+03    5.7601881E+03    2.8324130E+06   -5.7601952E+03    2.8364700E+06
   -0.81   800.000   -2.199E+01    2.8644685E+06    2.3231902E+03    6.5013592E+03    2.8644686E+06   -6.5013669E+03    2.8686467E+06
   -0.80   800.000   -2.237E+01    2.8995117E+06    2.8465039E+03    7.1424108E+03    2.8995117E+06   -7.1424192E+03    2.9038076E+06
   -0.79   800.000   -2.275E+01    2.9375815E+06    3.2621003E+03    7.6716014E+03    2.9375816E+06   -7.6716106E+03    2.9419911E+06
   -0.78   800.000   -2.314E+01    2.9785858E+06    3.5641618E+03    8.0822787E+03    2.9785858E+06   -8.0822887E+03    2.9831039E+06
   -0.77   800.000   -2.353E+01    3.0223050E+06    3.7515755E+03    8.3724763E+03    3.0223050E+06   -8.3724873E+03    3.0269259E+06
   -0.76   800.000   -2.393E+01    3.0684052E+06    3.8272382E+03    8.5442832E+03    3.0684052E+06   -8.5442953E+03    3.0731222E+06
   -0.75   800.000   -2.433E+01    3.1164565E+06    3.7972350E+03    8.6030983E+03    3.1164566E+06   -8.6031115E+03    3.1212624E+06
   -0.74   800.000   -2.473E+01    3.1659565E+06    3.6700046E+03    8.5568723E+03    3.1659565E+06   -8.5568867E+03    3.1708434E+06
   -0.73   800.000   -2.514E+01    3.2163546E+06    3.4555817E+03    8.4154147E+03    3.2163547E+06   -8.4154304E+03    3.2213145E+06
   -0.72   800.000   -2.556E+01    3.2670779E+06    3.1649855E+03    8.1898231E+03    3.2670779E+06   -8.1898401E+03    3.2721027E+06
   -0.71   800.000   -2.597E+01    3.3175544E+06    2.8097962E+03    7.8920662E+03    3.3175544E+06   -7.8920846E+03    3.3226367E+06
   -0.70   800.000   -2.640E+01    3.3672350E+06    2.4019290E+03    7.5347307E+03    3.3672350E+06   -7.5347505E+03    3.3723678E+06
   -0.69   800.000   -2.682E+01    3.4156107E+06    1.9535904E+03    7.1309146E+03    3.4156107E+06   -7.1309358E+03    3.4207881E+06
   -0.68   800.000   -2.725E+01    3.4622272E+06    1.4773634E+03    6.6942263E+03    3.4622273E+06   -6.6942489E+03    3.4674441E+06
   -0.67   800.000   -2.769E+01    3.5066945E+06    9.8634533E+02    6.2388236E+03    3.5066946E+06   -6.2388475E+03    3.5119470E+06
   -0.66   800.000   -2.812E+01    3.5486926E+06    4.9424465E+02    5.7794152E+03    3.5486926E+06   -5.7794404E+03    3.5539778E+06
   -0.65   800.000   -2.856E+01    3.5879738E+06    1.5345521E+01    5.3311489E+03    3.5879738E+06   -5.3311754E+03    3.5932896E+06
   -0.64   800.000   -2.901E+01    3.6243616E+06   -4.3572431E+02    4.9093323E+03    3.6243616E+06   -4.9093599E+03    3.6297067E+06
   -0.63   800.000   -2.945E+01    3.6577479E+06   -8.4444575E+02    4.5289669E+03    3.6577480E+06   -4.5289954E+03    3.6631214E+06
   -0.62   800.000   -2.990E+01    3.6880882E+06   -1.1970530E+03    4.2041223E+03    3.6880882E+06   -4.2041518E+03    3.6934894E+06
   -0.61   800.000   -3.035E+01    3.7153966E+06   -1.4812981E+03    3.9472154E+03    3.7153966E+06   -3.9472455E+03    3.7208251E+06
   -0.60   800.000   -3.080E+01    3.7397407E+06   -1.6872346E+03    3.7682835E+03    3.7397407E+06   -3.7683141E+03    3.7451962E+06
   -0.59   800.000   -3.126E+01    3.7612361E+06   -1.8079167E+03    3.6743479E+03    3.7612361E+06   -3.6743788E+03    3.7667183E+06
   -0.58   800.000   -3.171E+01    3.7800414E+06   -1.8399295E+03    3.6689427E+03    3.7800414E+06   -3.6689736E+03    3.7855503E+06
   -0.57   800.000   -3.217E+01    3.7963520E+06   -1.7837010E+03    3.7518568E+03    3.7963520E+06   -3.7518876E+03    3.8018875E+06
   -0.56   800.000   -3.262E+01    3.8103930E+06   -1.6435851E+03    3.9191008E+03    3.8103930E+06   -3.9191312E+03    3.8159557E+06
   -0.55   800.000   -3.308E+01    3.8224115E+06   -1.4277343E+03    4.1630788E+03    3.8224115E+06   -4.1631087E+03    3.8280023E+06
   -0.54   800.000   -3.354E+01    3.8326671E+06   -1.1478004E+03    4.4729317E+03    3.8326671E+06   -4.4729608E+03    3.8382879E+06
   -0.53   800.000   -3.400E+01    3.8414220E+06   -8.1850204E+02    4.8350064E+03    3.8414220E+06   -4.8350345E+03    3.8470755E+06
   -0.52   800.000   -3.445E+01    3.8489311E+06   -4.5709239E+02    5.2334136E+03    3.8489311E+06   -5.2334406E+03    3.8546216E+06
   -0.51   800.000   -3.491E+01    3.8554333E+06   -8.2748039E+01    5.6506405E+03    3.8554333E+06   -5.6506663E+03    3.8611667E+06
   -0.50   800.000   -3.537E+01    3.8611444E+06    2.8410943E+02    6.0681991E+03    3.8611444E+06   -6.0682236E+03    3.8669285E+06
   -0.49   800.000   -3.583E+01    3.8662527E+06    6.2255363E+02    6.4672931E+03    3.8662527E+06   -6.4673164E+03    3.8720975E+06
   -0.48   800.000   -3.628E+01    3.8709180E+06    9.1194879E+02    6.8294960E+03    3.8709180E+06   -6.8295180E+03    3.8768356E+06
   -0.47   800.000   -3.674E+01    3.8752729E+06    1.1327875E+03    7.1374302E+03    3.8752729E+06   -7.1374511E+03    3.8812776E+06
   -0.46   800.000   -3.719E+01    3.8794271E+06    1.2675463E+03    7.3754359E+03    3.8794271E+06   -7.3754557E+03    3.8855350E+06
   -0.45   800.000   -3.765E+01    3.8834730E+06    1.3015228E+03    7.5302093E+03    3.8834730E+06   -7.5302281E+03    3.8897017E+06
   -0.44   800.000   -3.810E+01    3.8874923E+06    1.2236034E+03    7.5913840E+03    3.8874923E+06   -7.5914019E+03    3.8938600E+06
   -0.43   800.000   -3.855E+01    3.8915621E+06    1.0269064E+03    7.5520200E+03    3.8915621E+06   -7.5520371E+03    3.8980872E+06
   -0.42   800.000   -3.900E+01    3.8957605E+06    7.0924542E+02    7.4089628E+03    3.8957605E+06   -7.4089791E+03    3.9024602E+06
   -0.41   800.000   -3.945E+01    3.9001705E+06    2.7336982E+02    7.1630434E+03    3.9001705E+06   -7.1630591E+03    3.9070601E+06
   -0.40   800.000   -3.989E+01    3.9048819E+06   -2.7303769E+02    6.8191020E+03    3.9048820E+06   -6.8191170E+03    3.9119741E+06
   -0.39   800.000   -4.034E+01    3.9099919E+06   -9.1759789E+02    6.3858408E+03    3.9099920E+06   -6.3858551E+03    3.9172954E+06
   -0.38   800.000   -4.078E+01    3.9156020E+06   -1.6436730E+03    5.8755291E+03    3.9156020E+06   -5.8755427E+03    3.9231212E+06
   -0.37   800.000   -4.122E+01    3.9218128E+06   -2.4309568E+03    5.3035953E+03    3.9218128E+06   -5.3036080E+03    3.9295474E+06
   -0.36   800.000   -4.166E+01    3.9287161E+06   -3.2561686E+03    4.6881349E+03    3.9287161E+06   -4.6881466E+03    3.9366604E+06
   -0.35   800.000   -4.209E+01    3.9363835E+06   -4.0938212E+03    4.0493474E+03    3.9363835E+06   -4.0493581E+03    3.9445267E+06
   -0.34   800.000   -4.253E+01    3.9448534E+06   -4.9170572E+03    3.4088912E+03    3.9448534E+06   -3.4089006E+03    3.9531793E+06
   -0.33   800.000   -4.296E+01    3.9541168E+06   -5.6985727E+03    2.7891236E+03    3.9541168E+06   -2.7891316E+03    3.9626045E+06
   -0.32   800.000   -4.339E+01    3.9641050E+06   -6.4116575E+03    2.2121936E+03    3.9641050E+06   -2.2122000E+03    3.9727289E+06
   -0.31   800.000   -4.382E+01    3.9746794E+06   -7.0313707E+03    1.6989681E+03    3.9746794E+06   -1.6989729E+03    3.9834098E+06
   -0.30   800.000   -4.424E+01    3.9856275E+06   -7.5358399E+03    1.2678139E+03    3.9856275E+06   -1.2678168E+03    3.9944311E+06
   -0.29   800.000   -4.467E+01    3.9966649E+06   -7.9076256E+03    9.3330786E+02    3.9966649E+06   -9.3330897E+02    4.0055059E+06
   -0.28   800.000   -4.509E+01    4.0074457E+06   -8.1350406E+03    7.0500166E+02    4.0074457E+06   -7.0500089E+02    4.0162858E+06
   -0.27   800.000   -4.552E+01    4.0175790E+06   -8.2132680E+03    5.8640612E+02    4.0175790E+06   -5.8640348E+02    4.0263787E+06
   -0.26   800.000   -4.594E+01    4.0266515E+06   -8.1450995E+03    5.7437690E+02    4.0266515E+06   -5.7437247E+02    4.0353710E+06
   -0.25   800.000   -4.637E+01    4.0342537E+06   -7.9411175E+03    6.5906134E+02    4.0342538E+06   -6.5905522E+02    4.0428539E+06
   -0.24   800.000   -4.679E+01    4.0400061E+06   -7.6192003E+03    8.2450647E+02    4.0400062E+06   -8.2449882E+02    4.0484499E+06
   -0.23   800.000   -4.722E+01    4.0435828E+06   -7.2033091E+03    1.0499344E+03    4.0435829E+06   -1.0499255E+03    4.0518361E+06
   -0.22   800.000   -4.765E+01    4.0447300E+06   -6.7216357E+03    1.3115779E+03    4.0447300E+06   -1.3115678E+03    4.0527632E+06
   -0.21   800.000   -4.808E+01    4.0432771E+06   -6.2043056E+03    1.5848593E+03    4.0432772E+06   -1.5848483E+03    4.0510663E+06
   -0.20   800.000   -4.851E+01    4.0391411E+06   -5.6809262E+03    1.8466207E+03    4.0391411E+06   -1.8466090E+03    4.0466687E+06
   -0.19   800.000   -4.894E+01    4.0323224E+06   -5.1783119E+03    2.0770860E+03    4.0323224E+06   -2.0770739E+03    4.0395778E+06
   -0.18   800.000   -4.938E+01    4.0228970E+06   -4.7186967E+03    2.2612768E+03    4.0228971E+06   -2.2612646E+03    4.0298770E+06
   -0.17   800.000   -4.982E+01    4.0110048E+06   -4.3186600E+03    2.3896962E+03    4.0110049E+06   -2.3896840E+03    4.0177132E+06
   -0.16   800.000   -5.027E+01    3.9968380E+06   -3.9888647E+03    2.4582228E+03    3.9968381E+06   -2.4582109E+03    4.0032852E+06
   -0.15   800.000   -5.072E+01    3.9806317E+06   -3.7345688E+03    2.4672923E+03    3.9806317E+06   -2.4672808E+03    3.9868336E+06
   -0.14   800.000   -5.117E+01    3.9626571E+06   -3.5567543E+03    2.4205489E+03    3.9626571E+06   -2.4205380E+03    3.9686344E+06
   -0.13   800.000   -5.163E+01    3.9432185E+06   -3.4536372E+03    2.3232137E+03    3.9432185E+06   -2.3232035E+03    3.9489954E+06
   -0.12   800.000   -5.210E+01    3.9226517E+06   -3.4223046E+03    2.1804256E+03    3.9226517E+06   -2.1804162E+03    3.9282545E+06
   -0.11   800.000   -5.257E+01    3.9013229E+06   -3.4602458E+03    1.9957776E+03    3.9013230E+06   -1.9957690E+03    3.9067790E+06
   -0.10   800.000   -5.305E+01    3.8796249E+06   -3.5666014E+03    1.7702019E+03    3.8796249E+06   -1.7701943E+03    3.8849617E+06
   -0.09   800.000   -5.354E+01    3.8579691E+06   -3.7430320E+03    1.5012828E+03    3.8579691E+06   -1.5012760E+03    3.8632134E+06
   -0.08   800.000   -5.403E+01    3.8367723E+06   -3.9941729E+03    1.1829995E+03    3.8367723E+06   -1.1829936E+03    3.8419495E+06
   -0.07   800.000   -5.453E+01    3.8164383E+06   -4.3277035E+03    8.0585154E+02    3.8164383E+06   -8.0584668E+02    3.8215718E+06
   -0.06   800.000   -5.505E+01    3.7973354E+06   -4.7540908E+03    3.5728364E+02    3.7973354E+06   -3.5727968E+02    3.8024468E+06
   -0.05   800.000   -5.557E+01    3.7797734E+06   -5.2860873E+03   -1.7768115E+02    3.7797734E+06    1.7768425E+02    3.7848818E+06
   -0.04   800.000   -5.609E+01    3.7639816E+06   -5.9380562E+03   -8.1567913E+02    3.7639816E+06    8.1568143E+02    3.7691040E+06
   -0.03   800.000   -5.663E+01    3.7500923E+06   -6.7251881E+03   -1.5741751E+03    3.7500923E+06    1.5741767E+03    3.7552433E+06
   -0.02   800.000   -5.718E+01    3.7381312E+06   -7.6626528E+03   -2.4705995E+03    3.7381312E+06    2.4706005E+03    3.7433233E+06
   -0.01   800.000   -5.774E+01    3.7280168E+06   -8.7647206E+03   -3.5214759E+03    3.7280169E+06    3.5214764E+03    3.7332601E+06
    0.00   800.000   -5.830E+01    3.7195695E+06   -1.0043883E+04   -4.7415563E+03    3.7195695E+06    4.7415564E+03    3.7248718E+06
    0.01   800.000   -5.888E+01    3.7125283E+06   -1.1510016E+04   -6.1429966E+03    3.7125283E+06    6.1429965E+03    3.7178954E+06
    0.02   800.000   -5.946E+01    3.7065761E+06   -1.3169631E+04   -7.7346197E+03    3.7065761E+06    7.7346196E+03    3.7120111E+06
    0.03   800.000   -6.005E+01    3.7013679E+06   -1.5025303E+04   -9.5213329E+03    3.7013679E+06    9.5213329E+03    3.7068719E+06
    0.04   800.000   -6.065E+01    3.6965625E+06   -1.7075312E+04   -1.1503771E+04    3.6965625E+06    1.1503771E+04    3.7021341E+06
    0.05   800.000   -6.126E+01    3.6918517E+06   -1.9313585E+04   -1.3678216E+04    3.6918517E+06    1.3678216E+04    3.6974871E+06
    0.06   800.000   -6.187E+01    3.6869865E+06   -2.1729936E+04   -1.6036824E+04    3.6869866E+06    1.6036825E+04    3.6926797E+06
    0.07   800.000   -6.249E+01    3.6817968E+06   -2.4310582E+04   -1.8568126E+04    3.6817969E+06    1.8568127E+04    3.6875393E+06
    0.08   800.000   -6.312E+01    3.6762031E+06   -2.7038897E+04   -2.1257742E+04    3.6762031E+06    2.1257745E+04    3.6819843E+06
    0.09   800.000   -6.375E+01    3.6702197E+06   -2.9896289E+04   -2.4089228E+04    3.6702197E+06    2.4089231E+04    3.6760268E+06
    0.10   800.000   -6.439E+01    3.6639495E+06   -3.2863134E+04   -2.7044929E+04    3.6639495E+06    2.7044933E+04    3.6697677E+06
    0.11   800.000   -6.504E+01    3.6575711E+06   -3.5919656E+04   -3.0106771E+04    3.6575711E+06    3.0106775E+04    3.6633840E+06
    0.12   800.000   -6.569E+01    3.6513200E+06   -3.9046686E+04   -3.3256886E+04    3.6513201E+06    3.3256891E+04    3.6571099E+06
    0.13   800.000   -6.635E+01    3.6454664E+06   -4.2226232E+04   -3.6478041E+04    3.6454664E+06    3.6478047E+04    3.6512146E+06
    0.14   800.000   -6.702E+01    3.6402909E+06   -4.5441819E+04   -3.9753824E+04    3.6402909E+06    3.9753830E+04    3.6459789E+06
    0.15   800.000   -6.769E+01    3.6360620E+06   -4.8678574E+04   -4.3068599E+04    3.6360621E+06    4.3068606E+04    3.6416721E+06
    0.16   800.000   -6.837E+01    3.6330159E+06   -5.1923074E+04   -4.6407268E+04    3.6330159E+06    4.6407275E+04    3.6385317E+06
    0.17   800.000   -6.906E+01    3.6313390E+06   -5.5162989E+04   -4.9754884E+04    3.6313391E+06    4.9754893E+04    3.6367472E+06
    0.18   800.000   -6.975E+01    3.6311570E+06   -5.8386588E+04   -5.3096211E+04    3.6311570E+06    5.3096221E+04    3.6364474E+06
    0.19   800.000   -7.044E+01    3.6325261E+06   -6.1582197E+04   -5.6415293E+04    3.6325261E+06    5.6415304E+04    3.6376930E+06
    0.20   800.000   -7.115E+01    3.6354306E+06   -6.4737666E+04   -5.9695114E+04    3.6354307E+06    5.9695125E+04    3.6404732E+06
    0.21   800.000   -7.186E+01    3.6397837E+06   -6.7839907E+04   -6.2917368E+04    3.6397837E+06    6.2917380E+04    3.6447063E+06
    0.22   800.000   -7.258E+01    3.6454318E+06   -7.0874530E+04   -6.6062351E+04    3.6454319E+06    6.6062364E+04    3.6502441E+06
    0.23   800.000   -7.330E+01    3.6521639E+06   -7.3825567E+04   -6.9108957E+04    3.6521640E+06    6.9108972E+04    3.6568806E+06
    0.24   800.000   -7.403E+01    3.6597238E+06   -7.6675309E+04   -7.2034760E+04    3.6597239E+06    7.2034776E+04    3.6643645E+06
    0.25   800.000   -7.476E+01    3.6678265E+06   -7.9404251E+04   -7.4816189E+04    3.6678266E+06    7.4816207E+04    3.6724146E+06
    0.26   800.000   -7.550E+01    3.6761773E+06   -8.1991229E+04   -7.7428848E+04    3.6761774E+06    7.7428867E+04    3.6807398E+06
    0.27   800.000   -7.624E+01    3.6844939E+06   -8.4413786E+04   -7.9848034E+04    3.6844940E+06    7.9848055E+04    3.6890597E+06
    0.28   800.000   -7.699E+01    3.6925280E+06   -8.6648869E+04   -8.2049534E+04    3.6925281E+06    8.2049556E+04    3.6971274E+06
    0.29   800.000   -7.775E+01    3.7000863E+06   -8.8673844E+04   -8.4010707E+04    3.7000865E+06    8.4010730E+04    3.7047496E+06
    0.30   800.000   -7.851E+01    3.7070477E+06   -9.0467809E+04   -8.5711818E+04    3.7070478E+06    8.5711842E+04    3.7118038E+06
    0.31   800.000   -7.927E+01    3.7133746E+06   -9.2013034E+04   -8.7137463E+04    3.7133748E+06    8.7137487E+04    3.7182503E+06
    0.32   800.000   -8.004E+01    3.7191177E+06   -9.3296317E+04   -8.8277873E+04    3.7191179E+06    8.8277898E+04    3.7241363E+06
    0.33   800.000   -8.082E+01    3.7244117E+06   -9.4310019E+04   -8.9129852E+04    3.7244119E+06    8.9129877E+04    3.7295920E+06
    0.34   800.000   -8.160E+01    3.7294630E+06   -9.5052555E+04   -8.9697126E+04    3.7294632E+06    8.9697150E+04    3.7348186E+06
    0.35   800.000   -8.238E+01    3.7345293E+06   -9.5528232E+04   -8.9990007E+04    3.7345294E+06    8.9990031E+04    3.7400676E+06
    0.36   800.000   -8.317E+01    3.7398926E+06   -9.5746467E+04   -9.0024382E+04    3.7398927E+06    9.0024405E+04    3.7456148E+06
    0.37   800.000   -8.396E+01    3.7458288E+06   -9.5720520E+04   -8.9820192E+04    3.7458290E+06    8.9820213E+04    3.7517293E+06
    0.38   800.000   -8.476E+01    3.7525756E+06   -9.5466017E+04   -8.9399664E+04    3.7525758E+06    8.9399682E+04    3.7586421E+06
    0.39   800.000   -8.556E+01    3.7603023E+06   -9.4999531E+04   -8.8785595E+04    3.7603025E+06    8.8785612E+04    3.7665164E+06
    0.40   800.000   -8.636E+01    3.7690850E+06   -9.4337463E+04   -8.7999959E+04    3.7690851E+06    8.7999974E+04    3.7754226E+06
    0.41   800.000   -8.718E+01    3.7788885E+06   -9.3495397E+04   -8.7062997E+04    3.7788886E+06    8.7063009E+04    3.7853210E+06
    0.42   800.000   -8.799E+01    3.7895584E+06   -9.2487918E+04   -8.5992846E+04    3.7895585E+06    8.5992855E+04    3.7960536E+06
    0.43   800.000   -8.881E+01    3.8008210E+06   -9.1328824E+04   -8.4805631E+04    3.8008211E+06    8.4805638E+04    3.8073443E+06
    0.44   800.000   -8.964E+01    3.8122939E+06   -9.0031534E+04   -8.3515833E+04    3.8122940E+06    8.3515837E+04    3.8188097E+06
    0.45   800.000   -9.047E+01    3.8235028E+06   -8.8609471E+04   -8.2136725E+04    3.8235029E+06    8.2136727E+04    3.8299756E+06
    0.46   800.000   -9.131E+01    3.8339047E+06   -8.7076243E+04   -8.0680669E+04    3.8339048E+06    8.0680670E+04    3.8403004E+06
    0.47   800.000   -9.216E+01    3.8429147E+06   -8.5445480E+04   -7.9159139E+04    3.8429148E+06    7.9159138E+04    3.8492011E+06
    0.48   800.000   -9.301E+01    3.8499329E+06   -8.3730350E+04   -7.7582439E+04    3.8499330E+06    7.7582437E+04    3.8560810E+06
    0.49   800.000   -9.386E+01    3.8543728E+06   -8.1942839E+04   -7.5959199E+04    3.8543729E+06    7.5959195E+04    3.8603565E+06
    0.50   800.000   -9.473E+01    3.8556855E+06   -8.0093001E+04   -7.4295820E+04    3.8556856E+06    7.4295815E+04    3.8614828E+06
    0.51   800.000   -9.559E+01    3.8533833E+06   -7.8188431E+04   -7.2596101E+04    3.8533833E+06    7.2596096E+04    3.8589757E+06
    0.52   800.000   -9.647E+01    3.8470573E+06   -7.6234149E+04   -7.0861246E+04    3.8470574E+06    7.0861241E+04    3.8524303E+06
    0.53   800.000   -9.734E+01    3.8363923E+06   -7.4233038E+04   -6.9090380E+04    3.8363924E+06    6.9090375E+04    3.8415351E+06
    0.54   800.000   -9.822E+01    3.8211755E+06   -7.2186803E+04   -6.7281559E+04    3.8211756E+06    6.7281554E+04    3.8260809E+06
    0.55   800.000   -9.911E+01    3.8012998E+06   -7.0097291E+04   -6.5433130E+04    3.8012999E+06    6.5433126E+04    3.8059640E+06
    0.56   800.000   -9.999E+01    3.7767612E+06   -6.7967890E+04   -6.3545168E+04    3.7767613E+06    6.3545164E+04    3.7811840E+06
    0.57   800.000   -1.009E+02    3.7476509E+06   -6.5804667E+04   -6.1620654E+04    3.7476510E+06    6.1620651E+04    3.7518350E+06
    0.58   800.000   -1.018E+02    3.7141415E+06   -6.3616947E+04   -5.9666104E+04    3.7141415E+06    5.9666102E+04    3.7180924E+06
    0.59   800.000   -1.027E+02    3.6764698E+06   -6.1417125E+04   -5.7691446E+04    3.6764699E+06    5.7691445E+04    3.6801956E+06
    0.60   800.000   -1.035E+02    3.6349180E+06   -5.9219705E+04   -5.5709102E+04    3.6349181E+06    5.5709101E+04    3.6384287E+06
    0.61   800.000   -1.044E+02    3.5897935E+06   -5.7039665E+04   -5.3732409E+04    3.5897936E+06    5.3732409E+04    3.5931009E+06
    0.62   800.000   -1.053E+02    3.5414131E+06   -5.4890470E+04   -5.1773647E+04    3.5414131E+06    5.1773648E+04    3.5445300E+06
    0.63   800.000   -1.062E+02    3.4900892E+06   -5.2782052E+04   -4.9842036E+04    3.4900893E+06    4.9842037E+04    3.4930293E+06
    0.64   800.000   -1.070E+02    3.4361234E+06   -5.0719165E+04   -4.7942057E+04    3.4361235E+06    4.7942059E+04    3.4389006E+06
    0.65   800.000   -1.079E+02    3.3798044E+06   -4.8700391E+04   -4.6072439E+04    3.3798045E+06    4.6072442E+04    3.3824325E+06
    0.66   800.000   -1.088E+02    3.3214127E+06   -4.6718030E+04   -4.4225981E+04    3.3214128E+06    4.4225983E+04    3.3239048E+06
    0.67   800.000   -1.096E+02    3.2612278E+06   -4.4758912E+04   -4.2390304E+04    3.2612279E+06    4.2390307E+04    3.2635965E+06
    0.68   800.000   -1.104E+02    3.1995393E+06   -4.2806054E+04   -4.0549445E+04    3.1995394E+06    4.0549448E+04    3.2017960E+06
    0.69   800.000   -1.112E+02    3.1366566E+06   -4.0840952E+04   -3.8686074E+04    3.1366566E+06    3.8686077E+04    3.1388115E+06
    0.70   800.000   -1.121E+02    3.0729174E+06   -3.8846183E+04   -3.6784032E+04    3.0729175E+06    3.6784034E+04    3.0749797E+06
    0.71   800.000   -1.128E+02    3.0086935E+06   -3.6807967E+04   -3.4830832E+04    3.0086936E+06    3.4830834E+04    3.0106707E+06
    0.72   800.000   -1.136E+02    2.9443913E+06   -3.4718328E+04   -3.2819768E+04    2.9443914E+06    3.2819770E+04    2.9462900E+06
    0.73   800.000   -1.144E+02    2.8804501E+06   -3.2576574E+04   -3.0751344E+04    2.8804502E+06    3.0751346E+04    2.8822754E+06
    0.74   800.000   -1.151E+02    2.8173351E+06   -3.0389898E+04   -2.8633844E+04    2.8173352E+06    2.8633845E+04    2.8190912E+06
    0.75   800.000   -1.159E+02    2.7555288E+06   -2.8173087E+04   -2.6483004E+04    2.7555289E+06    2.6483005E+04    2.7572190E+06
    0.76   800.000   -1.166E+02    2.6955206E+06   -2.5947413E+04   -2.4320894E+04    2.6955207E+06    2.4320895E+04    2.6971473E+06
    0.77   800.000   -1.173E+02    2.6377945E+06   -2.3738928E+04   -2.2174192E+04    2.6377946E+06    2.2174193E+04    2.6393593E+06
    0.78   800.000   -1.179E+02    2.5828169E+06   -2.1576433E+04   -2.0072155E+04    2.5828170E+06    2.0072156E+04    2.5843213E+06
    0.79   800.000   -1.186E+02    2.5310244E+06   -1.9489410E+04   -1.8044547E+04    2.5310245E+06    1.8044549E+04    2.5324694E+06
    0.80   800.000   -1.193E+02    2.4828115E+06   -1.7506132E+04   -1.6119759E+04    2.4828116E+06    1.6119761E+04    2.4841979E+06
    0.81   800.000   -1.199E+02    2.4385183E+06   -1.5652139E+04   -1.4323289E+04    2.4385184E+06    1.4323292E+04    2.4398472E+06
    0.82   800.000   -1.205E+02    2.3984191E+06   -1.3949116E+04   -1.2676635E+04    2.3984192E+06    1.2676638E+04    2.3996917E+06
    0.83   800.000   -1.211E+02    2.3627110E+06   -1.2414168E+04   -1.1196582E+04    2.3627111E+06    1.1196586E+04    2.3639287E+06
    0.84   800.000   -1.217E+02    2.3315034E+06   -1.1059425E+04   -9.8948381E+03    2.3315034E+06    9.8948427E+03    2.3326680E+06
    0.85   800.000   -1.223E+02    2.3048089E+06   -9.8919074E+03   -8.7779108E+03    2.3048090E+06    8.7779163E+03    2.3059230E+06
    0.86   800.000   -1.228E+02    2.2825365E+06   -8.9135800E+03   -7.8472013E+03    2.2825366E+06    7.8472077E+03    2.2836029E+06
    0.87   800.000   -1.234E+02    2.2644869E+06   -8.1215909E+03   -7.0992712E+03    2.2644870E+06    7.0992784E+03    2.2655093E+06
    0.88   800.000   -1.239E+02    2.2503527E+06   -7.5086954E+03   -6.5263009E+03    2.2503528E+06    6.5263090E+03    2.2513352E+06
    0.89   800.000   -1.244E+02    2.2397223E+06   -7.0638913E+03   -6.1167574E+03    2.2397224E+06    6.1167663E+03    2.2406695E+06
    0.90   800.000   -1.250E+02    2.2320906E+06   -6.7732711E+03   -5.8562737E+03    2.2320907E+06    5.8562834E+03    2.2330077E+06
    0.91   800.000   -1.255E+02    2.2268751E+06   -6.6210584E+03   -5.7287060E+03    2.2268751E+06    5.7287164E+03    2.2277675E+06
    0.92   800.000   -1.260E+02    2.2234381E+06   -6.5907488E+03   -5.7172863E+03    2.2234381E+06    5.7172974E+03    2.2243116E+06
    0.93   800.000   -1.265E+02    2.2211148E+06   -6.6662392E+03   -5.8057536E+03    2.2211149E+06    5.8057654E+03    2.2219754E+06
    0.94   800.000   -1.270E+02    2.2192444E+06   -6.8328130E+03   -5.9793308E+03    2.2192444E+06    5.9793431E+03    2.2200979E+06
    0.95   800.000   -1.275E+02    2.2172024E+06   -7.0778677E+03   -6.2254351E+03    2.2172025E+06    6.2254480E+03    2.2180549E+06
    0.96   800.000   -1.280E+02    2.2144326E+06   -7.3913138E+03   -6.5340513E+03    2.2144326E+06    6.5340647E+03    2.2152899E+06
    0.97   800.000   -1.286E+02    2.2104736E+06   -7.7656279E+03   -6.8977546E+03    2.2104736E+06    6.8977686E+03    2.2113415E+06
    0.98   800.000   -1.291E+02    2.2049803E+06   -8.1956041E+03   -7.3114285E+03    2.2049804E+06    7.3114430E+03    2.2058645E+06
    0.99   800.000   -1.296E+02    2.1977367E+06   -8.6778840E+03   -7.7717618E+03    2.1977367E+06    7.7717769E+03    2.1986428E+06
    1.00   800.000   -1.301E+02    2.1886599E+06   -9.2103677E+03   -8.2766301E+03    2.1886599E+06    8.2766458E+03    2.1895937E+06
    1.01   800.000   -1.306E+02    2.1777970E+06   -9.7916039E+03   -8.8244632E+03    2.1777970E+06    8.8244794E+03    2.1787642E+06
    1.02   800.000   -1.311E+02    2.1653136E+06   -1.0420237E+04   -9.4136787E+03    2.1653136E+06    9.4136955E+03    2.1663202E+06
    1.03   800.000   -1.316E+02    2.1514771E+06   -1.1094560E+04   -1.0042234E+04    2.1514772E+06    1.0042252E+04    2.1525295E+06
    1.04   800.000   -1.322E+02    2.1366364E+06   -1.1812198E+04   -1.0707322E+04    2.1366365E+06    1.0707340E+04    2.1377413E+06
    1.05   800.000   -1.327E+02    2.1211981E+06   -1.2569923E+04   -1.1405206E+04    2.1211981E+06    1.1405224E+04    2.1223629E+06
    1.06   800.000   -1.333E+02    2.1056022E+06   -1.3363582E+04   -1.2131189E+04    2.1056022E+06    1.2131208E+04    2.1068346E+06
    1.07   800.000   -1.338E+02    2.0902974E+06   -1.4188125E+04   -1.2879688E+04    2.0902974E+06    1.2879708E+04    2.0916059E+06
    1.08   800.000   -1.344E+02    2.0757177E+06   -1.5037720E+04   -1.3644398E+04    2.0757177E+06    1.3644419E+04    2.0771110E+06
    1.09   800.000   -1.350E+02    2.0622600E+06   -1.5905917E+04   -1.4418524E+04    2.0622600E+06    1.4418545E+04    2.0637474E+06
    1.10   800.000   -1.355E+02    2.0502656E+06   -1.6785884E+04   -1.5195064E+04    2.0502656E+06    1.5195085E+04    2.0518564E+06
    1.11   800.000   -1.361E+02    2.0400048E+06   -1.7670667E+04   -1.5967128E+04    2.0400048E+06    1.5967150E+04    2.0417083E+06
    1.12   800.000   -1.368E+02    2.0316668E+06   -1.8553481E+04   -1.6728276E+04    2.0316668E+06    1.6728298E+04    2.0334920E+06
    1.13   800.000   -1.374E+02    2.0253543E+06   -1.9427996E+04   -1.7472829E+04    2.0253542E+06    1.7472851E+04    2.0273094E+06
    1.14   800.000   -1.380E+02    2.0210833E+06   -2.0288591E+04   -1.8196146E+04    2.0210833E+06    1.8196169E+04    2.0231758E+06
    1.15   800.000   -1.387E+02    2.0187891E+06   -2.1130535E+04   -1.8894803E+04    2.0187891E+06    1.8894827E+04    2.0210248E+06
    1.16   800.000   -1.394E+02    2.0183346E+06   -2.1950078E+04   -1.9566660E+04    2.0183345E+06    1.9566684E+04    2.0207179E+06
    1.17   800.000   -1.400E+02    2.0195231E+06   -2.2744413E+04   -2.0210791E+04    2.0195230E+06    2.0210816E+04    2.0220567E+06
    1.18   800.000   -1.407E+02    2.0221122E+06   -2.3511549E+04   -2.0827302E+04    2.0221122E+06    2.0827328E+04    2.0247964E+06
    1.19   800.000   -1.415E+02    2.0258286E+06   -2.4250100E+04   -2.1417055E+04    2.0258286E+06    2.1417082E+04    2.0286616E+06
    1.20   800.000   -1.422E+02    2.0303820E+06   -2.4959052E+04   -2.1981366E+04    2.0303820E+06    2.1981393E+04    2.0333597E+06
    1.21   800.000   -1.430E+02    2.0354786E+06   -2.5637559E+04   -2.2521721E+04    2.0354785E+06    2.2521750E+04    2.0385944E+06
    1.22   800.000   -1.438E+02    2.0408324E+06   -2.6284796E+04   -2.3039568E+04    2.0408323E+06    2.3039597E+04    2.0440775E+06
    1.23   800.000   -1.446E+02    2.0461754E+06   -2.6899892E+04   -2.3536176E+04    2.0461753E+06    2.3536206E+04    2.0495390E+06
    1.24   800.000   -1.454E+02    2.0512659E+06   -2.7481922E+04   -2.4012570E+04    2.0512659E+06    2.4012602E+04    2.0547352E+06
    1.25   800.000   -1.463E+02    2.0558954E+06   -2.8029915E+04   -2.4469494E+04    2.0558953E+06    2.4469527E+04    2.0594558E+06
    1.26   800.000   -1.472E+02    2.0598937E+06   -2.8542855E+04   -2.4907358E+04    2.0598936E+06    2.4907392E+04    2.0635291E+06
    1.27   800.000   -1.481E+02    2.0631333E+06   -2.9019637E+04   -2.5326157E+04    2.0631332E+06    2.5326192E+04    2.0668267E+06
    1.28   800.000   -1.490E+02    2.0655322E+06   -2.9458992E+04   -2.5725355E+04    2.0655322E+06    2.5725391E+04    2.0692658E+06
    1.29   800.000   -1.500E+02    2.0670557E+06   -2.9859408E+04   -2.6103771E+04    2.0670556E+06    2.6103808E+04    2.0708112E+06
    1.30   800.000   -1.510E+02    2.0677159E+06   -3.0219093E+04   -2.6459515E+04    2.0677158E+06    2.6459552E+04    2.0714754E+06
    1.31   800.000   -1.520E+02    2.0675717E+06   -3.0536019E+04   -2.6790015E+04    2.0675716E+06    2.6790052E+04    2.0713176E+06
    1.32   800.000   -1.530E+02    2.0667262E+06   -3.0808066E+04   -2.7092168E+04    2.0667261E+06    2.7092205E+04    2.0704420E+06
    1.33   800.000   -1.541E+02    2.0653244E+06   -3.1033243E+04   -2.7362592E+04    2.0653243E+06    2.7362629E+04    2.0689950E+06
    1.34   800.000   -1.552E+02    2.0635498E+06   -3.1209933E+04   -2.7597935E+04    2.0635497E+06    2.7597971E+04    2.0671617E+06
    1.35   800.000   -1.563E+02    2.0616210E+06   -3.1337104E+04   -2.7795165E+04    2.0616209E+06    2.7795199E+04    2.0651628E+06
    1.36   800.000   -1.574E+02    2.0597869E+06   -3.1414408E+04   -2.7951775E+04    2.0597868E+06    2.7951809E+04    2.0632495E+06
    1.37   800.000   -1.585E+02    2.0583215E+06   -3.1442146E+04   -2.8065864E+04    2.0583213E+06    2.8065896E+04    2.0616976E+06
    1.38   800.000   -1.597E+02    2.0575157E+06   -3.1421091E+04   -2.8136060E+04    2.0575155E+06    2.8136091E+04    2.0608006E+06
    1.39   800.000   -1.609E+02    2.0576680E+06   -3.1352207E+04   -2.8161337E+04    2.0576679E+06    2.8161367E+04    2.0608587E+06
    1.40   800.000   -1.620E+02    2.0590716E+06   -3.1236324E+04   -2.8140762E+04    2.0590715E+06    2.8140790E+04    2.0621670E+06
    1.41   800.000   -1.632E+02    2.0619995E+06   -3.1073837E+04   -2.8073233E+04    2.0619993E+06    2.8073258E+04    2.0650000E+06
    1.42   800.000   -1.644E+02    2.0666881E+06   -3.0864475E+04   -2.7957272E+04    2.0666880E+06    2.7957295E+04    2.0695952E+06
    1.43   800.000   -1.656E+02    2.0733212E+06   -3.0607188E+04   -2.7790909E+04    2.0733211E+06    2.7790931E+04    2.0761374E+06
    1.44   800.000   -1.668E+02    2.0820148E+06   -3.0300143E+04   -2.7571674E+04    2.0820147E+06    2.7571693E+04    2.0847432E+06
    1.45   800.000   -1.680E+02    2.0928066E+06   -2.9940861E+04   -2.7296697E+04    2.0928065E+06    2.7296714E+04    2.0954506E+06
    1.46   800.000   -1.691E+02    2.1056495E+06   -2.9526448E+04   -2.6962921E+04    2.1056493E+06    2.6962936E+04    2.1082128E+06
    1.47   800.000   -1.703E+02    2.1204117E+06   -2.9053944E+04   -2.6567413E+04    2.1204116E+06    2.6567426E+04    2.1228981E+06
    1.48   800.000   -1.714E+02    2.1368835E+06   -2.8520749E+04   -2.6107753E+04    2.1368834E+06    2.6107764E+04    2.1392964E+06
    1.49   800.000   -1.725E+02    2.1547891E+06   -2.7925130E+04   -2.5582492E+04    2.1547889E+06    2.5582500E+04    2.1571316E+06
    1.50   800.000   -1.736E+02    2.1738043E+06   -2.7266766E+04   -2.4991646E+04    2.1738042E+06    2.4991653E+04    2.1760793E+06
    1.51   800.000   -1.747E+02    2.1935776E+06   -2.6547300E+04   -2.4337188E+04    2.1935774E+06    2.4337193E+04    2.1957875E+06
    1.52   800.000   -1.757E+02    2.2137527E+06   -2.5770828E+04   -2.3623475E+04    2.2137526E+06    2.3623478E+04    2.2158999E+06
    1.53   800.000   -1.767E+02    2.2339919E+06   -2.4944262E+04   -2.2857543E+04    2.2339917E+06    2.2857545E+04    2.2360785E+06
    1.54   800.000   -1.777E+02    2.2539970E+06   -2.4077491E+04   -2.2049222E+04    2.2539969E+06    2.2049223E+04    2.2560252E+06
    1.55   800.000   -1.787E+02    2.2735278E+06   -2.3183287E+04   -2.1210997E+04    2.2735277E+06    2.1210998E+04    2.2755000E+06
    1.56   800.000   -1.796E+02    2.2924153E+06   -2.2276932E+04   -2.0357621E+04    2.2924152E+06    2.0357621E+04    2.2943345E+06
    1.57   800.000   -1.806E+02    2.3105702E+06   -2.1375570E+04   -1.9505477E+04    2.3105701E+06    1.9505476E+04    2.3124402E+06
    1.58   800.000   -1.815E+02    2.3279846E+06   -2.0497350E+04   -1.8671755E+04    2.3279845E+06    1.8671754E+04    2.3298101E+06
    1.59   800.000   -1.823E+02    2.3447287E+06   -1.9660432E+04   -1.7873519E+04    2.3447286E+06    1.7873518E+04    2.3465155E+06
    1.60   800.000   -1.832E+02    2.3609415E+06   -1.8881961E+04   -1.7126761E+04    2.3609414E+06    1.7126760E+04    2.3626966E+06
    1.61   800.000   -1.841E+02    2.3768175E+06   -1.8177110E+04   -1.6445531E+04    2.3768174E+06    1.6445530E+04    2.3785490E+06
    1.62   800.000   -1.849E+02    2.3925907E+06   -1.7558263E+04   -1.5841219E+04    2.3925906E+06    1.5841219E+04    2.3943076E+06
    1.63   800.000   -1.857E+02    2.4085168E+06   -1.7034408E+04   -1.5322036E+04    2.4085167E+06    1.5322037E+04    2.4102291E+06
    1.64   800.000   -1.865E+02    2.4248569E+06   -1.6610757E+04   -1.4892719E+04    2.4248568E+06    1.4892720E+04    2.4265748E+06
    1.65   800.000   -1.873E+02    2.4418615E+06   -1.6288610E+04   -1.4554453E+04    2.4418614E+06    1.4554455E+04    2.4435956E+06
    1.66   800.000   -1.881E+02    2.4597588E+06   -1.6065447E+04   -1.4305017E+04    2.4597588E+06    1.4305019E+04    2.4615192E+06
    1.67   800.000   -1.888E+02    2.4787455E+06   -1.5935241E+04   -1.4139110E+04    2.4787455E+06    1.4139113E+04    2.4805416E+06
    1.68   800.000   -1.896E+02    2.4989816E+06   -1.5888972E+04   -1.4048865E+04    2.4989816E+06    1.4048868E+04    2.5008217E+06
    1.69   800.000   -1.904E+02    2.5205885E+06   -1.5915316E+04   -1.4024501E+04    2.5205884E+06    1.4024504E+04    2.5224793E+06
    1.70   800.000   -1.911E+02    2.5436502E+06   -1.6001494E+04   -1.4055099E+04    2.5436502E+06    1.4055101E+04    2.5455966E+06
    1.71   800.000   -1.919E+02    2.5682169E+06   -1.6134217E+04   -1.4129445E+04    2.5682169E+06    1.4129447E+04    2.5702216E+06
    1.72   800.000   -1.926E+02    2.5943093E+06   -1.6300676E+04   -1.4236896E+04    2.5943092E+06    1.4236897E+04    2.5963730E+06
    1.73   800.000   -1.933E+02    2.6219250E+06   -1.6489513E+04   -1.4368180E+04    2.6219250E+06    1.4368180E+04    2.6240463E+06
    1.74   800.000   -1.941E+02    2.6510453E+06   -1.6691665E+04   -1.4516094E+04    2.6510453E+06    1.4516092E+04    2.6532208E+06
    1.75   800.000   -1.948E+02    2.6816426E+06   -1.6901052E+04   -1.4676021E+04    2.6816425E+06    1.4676018E+04    2.6838676E+06
    1.76   800.000   -1.955E+02    2.7136885E+06   -1.7115029E+04   -1.4846247E+04    2.7136885E+06    1.4846243E+04    2.7159573E+06
    1.77   800.000   -1.962E+02    2.7471630E+06   -1.7334586E+04   -1.5028068E+04    2.7471630E+06    1.5028062E+04    2.7494696E+06
    1.78   800.000   -1.970E+02    2.7820626E+06   -1.7564298E+04   -1.5225695E+04    2.7820626E+06    1.5225687E+04    2.7844012E+06
    1.79   800.000   -1.977E+02    2.8184086E+06   -1.7812023E+04   -1.5445967E+04    2.8184086E+06    1.5445958E+04    2.8207746E+06
    1.80   800.000   -1.984E+02    2.8562525E+06   -1.8088374E+04   -1.5697896E+04    2.8562525E+06    1.5697885E+04    2.8586430E+06
    1.81   800.000   -1.991E+02    2.8956790E+06   -1.8405964E+04   -1.5992040E+04    2.8956790E+06    1.5992027E+04    2.8980929E+06
    1.82   800.000   -1.999E+02    2.9368028E+06   -1.8778464E+04   -1.6339717E+04    2.9368028E+06    1.6339702E+04    2.9392416E+06
    1.83   800.000   -2.006E+02    2.9797621E+06   -1.9219485E+04   -1.6752074E+04    2.9797621E+06    1.6752056E+04    2.9822295E+06
    1.84   800.000   -2.013E+02    3.0247050E+06   -1.9741377E+04   -1.7239062E+04    3.0247050E+06    1.7239042E+04    3.0272073E+06
    1.85   800.000   -2.021E+02    3.0717741E+06   -2.0354023E+04   -1.7808405E+04    3.0717741E+06    1.7808384E+04    3.0743197E+06
    1.86   800.000   -2.028E+02    3.1210878E+06   -2.1063774E+04   -1.8464683E+04    3.1210878E+06    1.8464659E+04    3.1236869E+06
    1.87   800.000   -2.035E+02    3.1727233E+06   -2.1872681E+04   -1.9208668E+04    3.1727233E+06    1.9208642E+04    3.1753873E+06
    1.88   800.000   -2.043E+02    3.2267041E+06   -2.2778144E+04   -2.0037054E+04    3.2267041E+06    2.0037027E+04    3.2294452E+06
    1.89   800.000   -2.050E+02    3.2829932E+06   -2.3773064E+04   -2.0942641E+04    3.2829932E+06    2.0942612E+04    3.2858236E+06
    1.90   800.000   -2.058E+02    3.3414950E+06   -2.4846496E+04   -2.1914981E+04    3.3414950E+06    2.1914950E+04    3.3444265E+06
    1.91   800.000   -2.065E+02    3.4020663E+06   -2.5984716E+04   -2.2941396E+04    3.4020663E+06    2.2941363E+04    3.4051096E+06
    1.92   800.000   -2.073E+02    3.4645348E+06   -2.7172528E+04   -2.4008215E+04    3.4645348E+06    2.4008181E+04    3.4676991E+06
    1.93   800.000   -2.081E+02    3.5287236E+06   -2.8394624E+04   -2.5102015E+04    3.5287236E+06    2.5101980E+04    3.5320162E+06
    1.94   800.000   -2.088E+02    3.5944790E+06   -2.9636779E+04   -2.6210691E+04    3.5944790E+06    2.6210654E+04    3.5979050E+06
    1.95   800.000   -2.096E+02    3.6616976E+06   -3.0886721E+04   -2.7324182E+04    3.6616976E+06    2.7324144E+04    3.6652601E+06
    1.96   800.000   -2.104E+02    3.7303497E+06   -3.2134611E+04   -2.8434792E+04    3.7303497E+06    2.8434753E+04    3.7340495E+06
    1.97   800.000   -2.112E+02    3.8004955E+06   -3.3373079E+04   -2.9537091E+04    3.8004955E+06    2.9537050E+04    3.8043315E+06
    1.98   800.000   -2.119E+02    3.8722925E+06   -3.4596902E+04   -3.0627463E+04    3.8722925E+06    3.0627422E+04    3.8762619E+06
    1.99   800.000   -2.127E+02    3.9459914E+06   -3.5802425E+04   -3.1703429E+04    3.9459914E+06    3.1703387E+04    3.9500903E+06
    2.00   800.000   -2.135E+02    4.0219213E+06   -3.6986848E+04   -3.2762872E+04    4.0219213E+06    3.2762829E+04    4.0261452E+06
    2.01   800.000   -2.143E+02    4.1004642E+06   -3.8147531E+04   -3.3803317E+04    4.1004642E+06    3.3803274E+04    4.1048084E+06
    2.02   800.000   -2.151E+02    4.1820209E+06   -3.9281437E+04   -3.4821400E+04    4.1820208E+06    3.4821357E+04    4.1864809E+06
    2.03   800.000   -2.159E+02    4.2669706E+06   -4.0384799E+04   -3.5812586E+04    4.2669706E+06    3.5812543E+04    4.2715428E+06
    2.04   800.000   -2.167E+02    4.3556299E+06   -4.1453070E+04   -3.6771205E+04    4.3556298E+06    3.6771162E+04    4.3603117E+06
    2.05   800.000   -2.175E+02    4.4482123E+06   -4.2481138E+04   -3.7690768E+04    4.4482123E+06    3.7690726E+04    4.4530026E+06
    2.06   800.000   -2.183E+02    4.5447962E+06   -4.3463781E+04   -3.8564537E+04    4.5447961E+06    3.8564495E+04    4.5496954E+06
    2.07   800.000   -2.191E+02    4.6453016E+06   -4.4396264E+04   -3.9386227E+04    4.6453015E+06    3.9386187E+04    4.6503116E+06
    2.08   800.000   -2.199E+02    4.7494813E+06   -4.5274979E+04   -4.0150762E+04    4.7494812E+06    4.0150722E+04    4.7546055E+06
    2.09   800.000   -2.207E+02    4.8569254E+06   -4.6098025E+04   -4.0854943E+04    4.8569254E+06    4.0854904E+04    4.8621685E+06
    2.10   800.000   -2.215E+02    4.9670807E+06   -4.6865607E+04   -4.1497939E+04    4.9670806E+06    4.1497901E+04    4.9724483E+06
    2.11   800.000   -2.223E+02    5.0792814E+06   -4.7580199E+04   -4.2081517E+04    5.0792813E+06    4.2081480E+04    5.0847800E+06
    2.12   800.000   -2.231E+02    5.1927901E+06   -4.8246428E+04   -4.2609973E+04    5.1927901E+06    4.2609937E+04    5.1984265E+06
    2.13   800.000   -2.239E+02    5.3068434E+06   -4.8870702E+04   -4.3089775E+04    5.3068433E+06    4.3089741E+04    5.3126242E+06
    2.14   800.000   -2.247E+02    5.4206974E+06   -4.9460645E+04   -4.3528995E+04    5.4206974E+06    4.3528963E+04    5.4266290E+06
    2.15   800.000   -2.255E+02    5.5336713E+06   -5.0024446E+04   -4.3936614E+04    5.5336712E+06    4.3936583E+04    5.5397590E+06
    2.16   800.000   -2.262E+02    5.6451814E+06   -5.0570232E+04   -4.4321827E+04    5.6451814E+06    4.4321797E+04    5.6514298E+06
    2.17   800.000   -2.270E+02    5.7547672E+06   -5.1105550E+04   -4.4693442E+04    5.7547671E+06    4.4693414E+04    5.7611792E+06
    2.18   800.000   -2.278E+02    5.8621035E+06   -5.1637019E+04   -4.5059440E+04    5.8621034E+06    4.5059413E+04    5.8686810E+06
    2.19   800.000   -2.286E+02    5.9670024E+06   -5.2170142E+04   -4.5426709E+04    5.9670024E+06    4.5426683E+04    5.9737458E+06
    2.20   800.000   -2.293E+02    6.0694032E+06   -5.2709260E+04   -4.5800921E+04    6.0694031E+06    4.5800897E+04    6.0763115E+06
    2.21   800.000   -2.301E+02    6.1693522E+06   -5.3257581E+04   -4.6186523E+04    6.1693521E+06    4.6186500E+04    6.1764232E+06
    2.22   800.000   -2.308E+02    6.2669761E+06   -5.3817243E+04   -4.6586772E+04    6.2669760E+06    4.6586750E+04    6.2742065E+06
    2.23   800.000   -2.316E+02    6.3624494E+06   -5.4389387E+04   -4.7003804E+04    6.3624493E+06    4.7003783E+04    6.3698349E+06
    2.24   800.000   -2.323E+02    6.4559593E+06   -5.4974238E+04   -4.7438721E+04    6.4559593E+06    4.7438702E+04    6.4634948E+06
    2.25   800.000   -2.331E+02    6.5476705E+06   -5.5571220E+04   -4.7891723E+04    6.5476704E+06    4.7891705E+04    6.5553499E+06
    2.26   800.000   -2.338E+02    6.6376915E+06   -5.6179119E+04   -4.8362278E+04    6.6376914E+06    4.8362262E+04    6.6455082E+06
    2.27   800.000   -2.346E+02    6.7260468E+06   -5.6796306E+04   -4.8849357E+04    6.7260468E+06    4.8849341E+04    6.7339937E+06
    2.28   800.000   -2.353E+02    6.8126557E+06   -5.7420995E+04   -4.9351685E+04    6.8126556E+06    4.9351670E+04    6.8207250E+06
    2.29   800.000   -2.360E+02    6.8973200E+06   -5.8051485E+04   -4.9867981E+04    6.8973199E+06    4.9867968E+04    6.9055034E+06
    2.30   800.000   -2.367E+02    6.9797232E+06   -5.8686330E+04   -5.0397117E+04    6.9797231E+06    5.0397105E+04    6.9880123E+06
    2.31   800.000   -2.375E+02    7.0594410E+06   -5.9324383E+04   -5.0938144E+04    7.0594409E+06    5.0938134E+04    7.0678271E+06
    2.32   800.000   -2.382E+02    7.1359629E+06   -5.9964691E+04   -5.1490178E+04    7.1359629E+06    5.1490168E+04    7.1444374E+06
    2.33   800.000   -2.389E+02    7.2087242E+06   -6.0606260E+04   -5.2052155E+04    7.2087242E+06    5.2052147E+04    7.2172783E+06
    2.34   800.000   -2.396E+02    7.2771454E+06   -6.1247761E+04   -5.2622544E+04    7.2771454E+06    5.2622537E+04    7.2857706E+06
    2.35   800.000   -2.404E+02    7.3406776E+06   -6.1887276E+04   -5.3199105E+04    7.3406775E+06    5.3199099E+04    7.3493657E+06
    2.36   800.000   -2.411E+02    7.3988501E+06   -6.2522203E+04   -5.3778829E+04    7.3988500E+06    5.3778825E+04    7.4075933E+06
    2.37   800.000   -2.418E+02    7.4513170E+06   -6.3149418E+04   -5.4358140E+04    7.4513169E+06    5.4358137E+04    7.4601081E+06
    2.38   800.000   -2.425E+02    7.4979005E+06   -6.3765695E+04   -5.4933374E+04    7.4979004E+06    5.4933373E+04    7.5067327E+06
    2.39   800.000   -2.432E+02    7.5386264E+06   -6.4368335E+04   -5.5501475E+04    7.5386263E+06    5.5501475E+04    7.5474932E+06
    2.40   800.000   -2.440E+02    7.5737482E+06   -6.4955833E+04   -5.6060713E+04    7.5737481E+06    5.6060715E+04    7.5826432E+06
    2.41   800.000   -2.447E+02    7.6037572E+06   -6.5528359E+04   -5.6611230E+04    7.6037571E+06    5.6611233E+04    7.6126742E+06
    2.42   800.000   -2.454E+02    7.6293745E+06   -6.6087844E+04   -5.7155162E+04    7.6293744E+06    5.7155167E+04    7.6383070E+06
    2.43   800.000   -2.461E+02    7.6515229E+06   -6.6637539E+04   -5.7696220E+04    7.6515228E+06    5.7696227E+04    7.6604641E+06
    2.44   800.000   -2.468E+02    7.6712790E+06   -6.7181039E+04   -5.8238712E+04    7.6712789E+06    5.8238721E+04    7.6802213E+06
    2.45   800.000   -2.475E+02    7.6898077E+06   -6.7720953E+04   -5.8786183E+04    7.6898076E+06    5.8786193E+04    7.6987424E+06
    2.46   800.000   -2.482E+02    7.7082840E+06   -6.8257500E+04   -5.9339943E+04    7.7082840E+06    5.9339955E+04    7.7172015E+06
    2.47   800.000   -2.489E+02    7.7278107E+06   -6.8787356E+04   -5.9897820E+04    7.7278107E+06    5.9897834E+04    7.7367002E+06
    2.48   800.000   -2.496E+02    7.7493391E+06   -6.9303014E+04   -6.0453399E+04    7.7493391E+06    6.0453414E+04    7.7581887E+06
    2.49   800.000   -2.503E+02    7.7736026E+06   -6.9792789E+04   -6.0995873E+04    7.7736026E+06    6.0995890E+04    7.7823995E+06
    2.50   800.000   -2.509E+02    7.8010689E+06   -7.0241379E+04   -6.1510458E+04    7.8010688E+06    6.1510477E+04    7.8097998E+06
    2.51   800.000   -2.516E+02    7.8319147E+06   -7.0630763E+04   -6.1979150E+04    7.8319147E+06    6.1979170E+04    7.8405663E+06
    2.52   800.000   -2.523E+02    7.8660238E+06   -7.0941136E+04   -6.2381540E+04    7.8660238E+06    6.2381562E+04    7.8745834E+06
    2.53   800.000   -2.529E+02    7.9030048E+06   -7.1151590E+04   -6.2695438E+04    7.9030048E+06    6.2695462E+04    7.9114609E+06
    2.54   800.000   -2.536E+02    7.9422244E+06   -7.1240406E+04   -6.2897147E+04    7.9422244E+06    6.2897173E+04    7.9505676E+06
    2.55   800.000   -2.543E+02    7.9828501E+06   -7.1184954E+04   -6.2961436E+04    7.9828501E+06    6.2961463E+04    7.9910736E+06
    2.56   800.000   -2.549E+02    8.0238970E+06   -7.0961408E+04   -6.2861370E+04    8.0238969E+06    6.2861399E+04    8.0319970E+06
    2.57   800.000   -2.556E+02    8.0642736E+06   -7.0544516E+04   -6.2568267E+04    8.0642736E+06    6.2568297E+04    8.0722498E+06
    2.58   800.000   -2.562E+02    8.1028251E+06   -6.9907699E+04   -6.2052020E+04    8.1028251E+06    6.2052051E+04    8.1106808E+06
    2.59   800.000   -2.568E+02    8.1383712E+06   -6.9023626E+04   -6.1281901E+04    8.1383712E+06    6.1281933E+04    8.1461130E+06
    2.60   800.000   -2.574E+02    8.1697400E+06   -6.7865230E+04   -6.0227820E+04    8.1697400E+06    6.0227852E+04    8.1773774E+06
    2.61   800.000   -2.581E+02    8.1957969E+06   -6.6407011E+04   -5.8861821E+04    8.1957969E+06    5.8861854E+04    8.2033421E+06
    2.62   800.000   -2.587E+02    8.2154716E+06   -6.4626339E+04   -5.7159541E+04    8.2154715E+06    5.7159574E+04    8.2229383E+06
    2.63   800.000   -2.593E+02    8.2277808E+06   -6.2504507E+04   -5.5101338E+04    8.2277808E+06    5.5101370E+04    8.2351839E+06
    2.64   800.000   -2.599E+02    8.2318510E+06   -6.0027390E+04   -5.2672958E+04    8.2318510E+06    5.2672989E+04    8.2392055E+06
    2.65   800.000   -2.604E+02    8.2269391E+06   -5.7185747E+04   -4.9865746E+04    8.2269391E+06    4.9865776E+04    8.2342591E+06
    2.66   800.000   -2.610E+02    8.2124529E+06   -5.3975371E+04   -4.6676645E+04    8.2124529E+06    4.6676672E+04    8.2197516E+06
    2.67   800.000   -2.616E+02    8.1879719E+06   -5.0397442E+04   -4.3108299E+04    8.1879718E+06    4.3108324E+04    8.1952610E+06
    2.68   800.000   -2.621E+02    8.1532673E+06   -4.6459390E+04   -3.9169642E+04    8.1532672E+06    3.9169664E+04    8.1605570E+06
    2.69   800.000   -2.627E+02    8.1083218E+06   -4.2176507E+04   -3.4877191E+04    8.1083218E+06    3.4877209E+04    8.1156211E+06
    2.70   800.000   -2.632E+02    8.0533464E+06   -3.7574297E+04   -3.0257095E+04    8.0533464E+06    3.0257109E+04    8.0606636E+06
    2.71   800.000   -2.637E+02    7.9887918E+06   -3.2691317E+04   -2.5347713E+04    7.9887918E+06    2.5347723E+04    7.9961354E+06
    2.72   800.000   -2.642E+02    7.9153531E+06   -2.7582031E+04   -2.0202286E+04    7.9153531E+06    2.0202291E+04    7.9227329E+06
    2.73   800.000   -2.647E+02    7.8339629E+06   -2.2319050E+04   -1.4891110E+04    7.8339629E+06    1.4891110E+04    7.8413908E+06
    2.74   800.000   -2.652E+02    7.7457724E+06   -1.6994134E+04   -9.5025852E+03    7.7457724E+06    9.5025806E+03    7.7532639E+06
    2.75   800.000   -2.657E+02    7.6521187E+06   -1.1717414E+04   -4.1426348E+03    7.6521186E+06    4.1426249E+03    7.6596934E+06
    2.76   800.000   -2.662E+02    7.5544787E+06   -6.6145390E+03    1.0678574E+03    7.5544786E+06   -1.0678727E+03    7.5621610E+06
    2.77   800.000   -2.666E+02    7.4544123E+06   -1.8216632E+03    5.9976604E+03    7.4544122E+06   -5.9976811E+03    7.4622315E+06
    2.78   800.000   -2.671E+02    7.3534967E+06    2.5214804E+03    1.0511686E+04    7.3534966E+06   -1.0511712E+04    7.3614868E+06
    2.79   800.000   -2.675E+02    7.2532569E+06    6.2799624E+03    1.4478917E+04    7.2532569E+06   -1.4478949E+04    7.2614558E+06
    2.80   800.000   -2.680E+02    7.1550964E+06    9.3328044E+03    1.7781136E+04    7.1550963E+06   -1.7781172E+04    7.1635446E+06
    2.81   800.000   -2.684E+02    7.0602317E+06    1.1582049E+04    2.0321629E+04    7.0602316E+06   -2.0321671E+04    7.0689712E+06
    2.82   800.000   -2.688E+02    6.9696361E+06    1.2960823E+04    2.2032978E+04    6.9696361E+06   -2.2033025E+04    6.9787082E+06
    2.83   800.000   -2.693E+02    6.8839956E+06    1.3439481E+04    2.2883023E+04    6.8839955E+06   -2.2883075E+04    6.8934390E+06
    2.84   800.000   -2.697E+02    6.8036791E+06    1.3029021E+04    2.2878212E+04    6.8036790E+06   -2.2878268E+04    6.8135282E+06
    2.85   800.000   -2.701E+02    6.7287282E+06    1.1781260E+04    2.2063812E+04    6.7287281E+06   -2.2063872E+04    6.7390106E+06
    2.86   800.000   -2.705E+02    6.6588655E+06    9.7855524E+03    2.0520790E+04    6.6588654E+06   -2.0520854E+04    6.6696007E+06
    2.87   800.000   -2.709E+02    6.5935252E+06    7.1623431E+03    1.8359615E+04    6.5935251E+06   -1.8359683E+04    6.6047224E+06
    2.88   800.000   -2.713E+02    6.5319039E+06    4.0541635E+03    1.5711624E+04    6.5319038E+06   -1.5711694E+04    6.5435613E+06
    2.89   800.000   -2.717E+02    6.4730312E+06    6.1507109E+02    1.2718913E+04    6.4730311E+06   -1.2718986E+04    6.4851350E+06
    2.90   800.000   -2.721E+02    6.4158557E+06   -3.0003377E+03    9.5238868E+03    6.4158556E+06   -9.5239613E+03    6.4283798E+06
    2.91   800.000   -2.725E+02    6.3593396E+06   -6.6472005E+03    6.2595634E+03    6.3593395E+06   -6.2596391E+03    6.3722462E+06
    2.92   800.000   -2.729E+02    6.3025545E+06   -1.0198968E+04    3.0415896E+03    6.3025544E+06   -3.0416659E+03    6.3157950E+06
    2.93   800.000   -2.733E+02    6.2447688E+06   -1.3553593E+04   -3.7390567E+01    6.2447687E+06    3.7314413E+01    6.2582849E+06
    2.94   800.000   -2.737E+02    6.1855166E+06   -1.6636967E+04   -2.9106989E+03    6.1855165E+06    2.9106235E+03    6.1992428E+06
    2.95   800.000   -2.741E+02    6.1246409E+06   -1.9403589E+04   -5.5379420E+03    6.1246408E+06    5.5378679E+03    6.1385065E+06
    2.96   800.000   -2.745E+02    6.0623066E+06   -2.1834734E+04   -7.9029903E+03    6.0623065E+06    7.9029183E+03    6.0762383E+06
    2.97   800.000   -2.749E+02    5.9989812E+06   -2.3934624E+04   -1.0010125E+04    5.9989811E+06    1.0010055E+04    6.0129056E+06
    2.98   800.000   -2.754E+02    5.9353887E+06   -2.5725241E+04   -1.1878973E+04    5.9353886E+06    1.1878907E+04    5.9492349E+06
    2.99   800.000   -2.758E+02    5.8724418E+06   -2.7240464E+04   -1.3538899E+04    5.8724417E+06    1.3538836E+04    5.8861433E+06
    3.00   800.000   -2.762E+02    5.8111646E+06   -2.8520232E+04   -1.5023488E+04    5.8111645E+06    1.5023429E+04    5.8246612E+06
    3.01   800.000   -2.766E+02    5.7526145E+06   -2.9605319E+04   -1.6365689E+04    5.7526144E+06    1.6365635E+04    5.7658540E+06
    3.02   800.000   -2.770E+02    5.6978144E+06   -3.0533232E+04   -1.7594076E+04    5.6978143E+06    1.7594026E+04    5.7107535E+06
    3.03   800.000   -2.774E+02    5.6477012E+06   -3.1335554E+04   -1.8730527E+04    5.6477011E+06    1.8730482E+04    5.6603061E+06
    3.04   800.000   -2.778E+02    5.6030941E+06   -3.2036873E+04   -1.9789461E+04    5.6030940E+06    1.9789421E+04    5.6153414E+06
    3.05   800.000   -2.782E+02    5.5646833E+06   -3.2655230E+04   -2.0778547E+04    5.5646832E+06    2.0778511E+04    5.5765599E+06
    3.06   800.000   -2.786E+02    5.5330345E+06   -3.3203791E+04   -2.1700612E+04    5.5330344E+06    2.1700581E+04    5.5445376E+06
    3.07   800.000   -2.790E+02    5.5086046E+06   -3.3693307E+04   -2.2556310E+04    5.5086045E+06    2.2556284E+04    5.5197415E+06
    3.08   800.000   -2.794E+02    5.4917622E+06   -3.4134759E+04   -2.3346968E+04    5.4917621E+06    2.3346947E+04    5.5025499E+06
    3.09   800.000   -2.798E+02    5.4828070E+06   -3.4541654E+04   -2.4077069E+04    5.4828069E+06    2.4077053E+04    5.4932715E+06
    3.10   800.000   -2.802E+02    5.4819823E+06   -3.4931456E+04   -2.4755882E+04    5.4819823E+06    2.4755870E+04    5.4921578E+06
    3.11   800.000   -2.806E+02    5.4894779E+06   -3.5325914E+04   -2.5397968E+04    5.4894778E+06    2.5397961E+04    5.4994058E+06
    3.12   800.000   -2.810E+02    5.5054206E+06   -3.5750219E+04   -2.6022527E+04    5.5054205E+06    2.6022525E+04    5.5151482E+06
    3.13   800.000   -2.814E+02    5.5298521E+06   -3.6231230E+04   -2.6651789E+04    5.5298521E+06    2.6651791E+04    5.5394315E+06
    3.14   800.000   -2.818E+02    5.5626958E+06   -3.6795115E+04   -2.7308807E+04    5.5626957E+06    2.7308813E+04    5.5721820E+06
    3.15   800.000   -2.822E+02    5.6037141E+06   -3.7464882E+04   -2.8015114E+04    5.6037141E+06    2.8015124E+04    5.6131639E+06
    3.16   800.000   -2.826E+02    5.6524636E+06   -3.8258174E+04   -2.8788621E+04    5.6524636E+06    2.8788634E+04    5.6619331E+06
    3.17   800.000   -2.831E+02    5.7082499E+06   -3.9185638E+04   -2.9642049E+04    5.7082498E+06    2.9642067E+04    5.7177934E+06
    3.18   800.000   -2.835E+02    5.7700921E+06   -4.0249978E+04   -3.0582016E+04    5.7700921E+06    3.0582036E+04    5.7797601E+06
    3.19   800.000   -2.839E+02    5.8367010E+06   -4.1445672E+04   -3.1608732E+04    5.8367010E+06    3.1608755E+04    5.8465380E+06
    3.20   800.000   -2.843E+02    5.9064759E+06   -4.2759255E+04   -3.2716209E+04    5.9064758E+06    3.2716235E+04    5.9165189E+06
    3.21   800.000   -2.848E+02    5.9775236E+06   -4.4170012E+04   -3.3892805E+04    5.9775235E+06    3.3892834E+04    5.9878008E+06
    3.22   800.000   -2.852E+02    6.0477012E+06   -4.5650986E+04   -3.5121978E+04    6.0477012E+06    3.5122009E+04    6.0582303E+06
    3.23   800.000   -2.857E+02    6.1146803E+06   -4.7170207E+04   -3.6383166E+04    6.1146803E+06    3.6383199E+04    6.1254673E+06
    3.24   800.000   -2.861E+02    6.1760292E+06   -4.8692159E+04   -3.7652777E+04    6.1760292E+06    3.7652812E+04    6.1870686E+06
    3.25   800.000   -2.866E+02    6.2293115E+06   -5.0179467E+04   -3.8905303E+04    6.2293116E+06    3.8905340E+04    6.2405857E+06
    3.26   800.000   -2.870E+02    6.2721927E+06   -5.1594819E+04   -4.0114591E+04    6.2721927E+06    4.0114629E+04    6.2836729E+06
    3.27   800.000   -2.875E+02    6.3025509E+06   -5.2903051E+04   -4.1255259E+04    6.3025509E+06    4.1255298E+04    6.3141987E+06
    3.28   800.000   -2.879E+02    6.3185859E+06   -5.4073312E+04   -4.2304229E+04    6.3185859E+06    4.2304269E+04    6.3303550E+06
    3.29   800.000   -2.884E+02    6.3189186E+06   -5.5081108E+04   -4.3242258E+04    6.3189187E+06    4.3242299E+04    6.3307575E+06
    3.30   800.000   -2.889E+02    6.3026758E+06   -5.5910038E+04   -4.4055340E+04    6.3026759E+06    4.4055381E+04    6.3145306E+06
    3.31   800.000   -2.893E+02    6.2695516E+06   -5.6553022E+04   -4.4735813E+04    6.2695517E+06    4.4735854E+04    6.2813689E+06
    3.32   800.000   -2.898E+02    6.2198414E+06   -5.7012840E+04   -4.5283024E+04    6.2198414E+06    4.5283065E+04    6.2315713E+06
    3.33   800.000   -2.903E+02    6.1544423E+06   -5.7301901E+04   -4.5703440E+04    6.1544424E+06    4.5703480E+04    6.1660408E+06
    3.34   800.000   -2.908E+02    6.0748189E+06   -5.7441208E+04   -4.6010126E+04    6.0748189E+06    4.6010165E+04    6.0862500E+06
    3.35   800.000   -2.913E+02    5.9829340E+06   -5.7458561E+04   -4.6221590E+04    5.9829340E+06    4.6221628E+04    5.9941710E+06
    3.36   800.000   -2.918E+02    5.8811500E+06   -5.7386114E+04   -4.6360031E+04    5.8811500E+06    4.6360067E+04    5.8921761E+06
    3.37   800.000   -2.923E+02    5.7721067E+06   -5.7257467E+04   -4.6449104E+04    5.7721067E+06    4.6449138E+04    5.7829151E+06
    3.38   800.000   -2.927E+02    5.6585861E+06   -5.7104479E+04   -4.6511369E+04    5.6585862E+06    4.6511402E+04    5.6691793E+06
    3.39   800.000   -2.932E+02    5.5433750E+06   -5.6954086E+04   -4.6565637E+04    5.5433750E+06    4.6565667E+04    5.5537635E+06
    3.40   800.000   -2.937E+02    5.4291351E+06   -5.6825371E+04   -4.6624473E+04    5.4291351E+06    4.6624501E+04    5.4393360E+06
    3.41   800.000   -2.942E+02    5.3182922E+06   -5.6727193E+04   -4.6692137E+04    5.3182923E+06    4.6692163E+04    5.3283273E+06
    3.42   800.000   -2.948E+02    5.2129499E+06   -5.6656604E+04   -4.6763203E+04    5.2129500E+06    4.6763226E+04    5.2228434E+06
    3.43   800.000   -2.953E+02    5.1148320E+06   -5.6598271E+04   -4.6822071E+04    5.1148321E+06    4.6822093E+04    5.1246083E+06
    3.44   800.000   -2.958E+02    5.0252553E+06   -5.6525020E+04   -4.6843486E+04    5.0252553E+06    4.6843505E+04    5.0349369E+06
    3.45   800.000   -2.963E+02    4.9451303E+06   -5.6399515E+04   -4.6794072E+04    4.9451304E+06    4.6794089E+04    4.9547358E+06
    3.46   800.000   -2.968E+02    4.8749861E+06   -5.6177006E+04   -4.6634810E+04    4.8749861E+06    4.6634824E+04    4.8845283E+06
    3.47   800.000   -2.973E+02    4.8150127E+06   -5.5808923E+04   -4.6324247E+04    4.8150127E+06    4.6324259E+04    4.8244974E+06
    3.48   800.000   -2.978E+02    4.7651169E+06   -5.5247082E+04   -4.5822185E+04    4.7651169E+06    4.5822195E+04    4.7745418E+06
    3.49   800.000   -2.984E+02    4.7249826E+06   -5.4448090E+04   -4.5093488E+04    4.7249826E+06    4.5093497E+04    4.7343372E+06
    3.50   800.000   -2.989E+02    4.6941323E+06   -5.3377566E+04   -4.4111652E+04    4.6941323E+06    4.4111659E+04    4.7033982E+06
    3.51   800.000   -2.994E+02    4.6719829E+06   -5.2013717E+04   -4.2861731E+04    4.6719829E+06    4.2861736E+04    4.6811349E+06
    3.52   800.000   -3.000E+02    4.6578945E+06   -5.0349838E+04   -4.1342269E+04    4.6578945E+06    4.1342274E+04    4.6669020E+06
    3.53   800.000   -3.005E+02    4.6512084E+06   -4.8395429E+04   -3.9565974E+04    4.6512084E+06    3.9565978E+04    4.6600378E+06
    3.54   800.000   -3.010E+02    4.6512753E+06   -4.6175709E+04   -3.7558984E+04    4.6512753E+06    3.7558987E+04    4.6598920E+06
    3.55   800.000   -3.016E+02    4.6574735E+06   -4.3729592E+04   -3.5358784E+04    4.6574735E+06    3.5358787E+04    4.6658443E+06
    3.56   800.000   -3.021E+02    4.6692190E+06   -4.1106329E+04   -3.3011013E+04    4.6692190E+06    3.3011016E+04    4.6773143E+06
    3.57   800.000   -3.026E+02    4.6859687E+06   -3.8361278E+04   -3.0565551E+04    4.6859687E+06    3.0565554E+04    4.6937644E+06
    3.58   800.000   -3.032E+02    4.7072177E+06   -3.5551336E+04   -2.8072401E+04    4.7072177E+06    2.8072405E+04    4.7146967E+06
    3.59   800.000   -3.037E+02    4.7324925E+06   -3.2730640E+04   -2.5577899E+04    4.7324926E+06    2.5577904E+04    4.7396453E+06
    3.60   800.000   -3.043E+02    4.7613394E+06   -2.9947037E+04   -2.3121706E+04    4.7613394E+06    2.3121712E+04    4.7681647E+06
    3.61   800.000   -3.048E+02    4.7933096E+06   -2.7239708E+04   -2.0734921E+04    4.7933096E+06    2.0734928E+04    4.7998144E+06
    3.62   800.000   -3.053E+02    4.8279430E+06   -2.4638124E+04   -1.8439460E+04    4.8279430E+06    1.8439468E+04    4.8341417E+06
    3.63   800.000   -3.059E+02    4.8647513E+06   -2.2162320E+04   -1.6248663E+04    4.8647514E+06    1.6248673E+04    4.8706650E+06
    3.64   800.000   -3.064E+02    4.9032055E+06   -1.9824268E+04   -1.4168929E+04    4.9032056E+06    1.4168940E+04    4.9088609E+06
    3.65   800.000   -3.069E+02    4.9427297E+06   -1.7630016E+04   -1.2202017E+04    4.9427297E+06    1.2202030E+04    4.9481577E+06
    3.66   800.000   -3.074E+02    4.9827057E+06   -1.5582179E+04   -1.0347633E+04    4.9827057E+06    1.0347647E+04    4.9879402E+06
    3.67   800.000   -3.079E+02    5.0224897E+06   -1.3682346E+04   -8.6058521E+03    5.0224897E+06    8.6058681E+03    5.0275662E+06
    3.68   800.000   -3.084E+02    5.0614416E+06   -1.1933034E+04   -6.9790442E+03    5.0614416E+06    6.9790616E+03    5.0663956E+06
    3.69   800.000   -3.089E+02    5.0989624E+06   -1.0338947E+04   -5.4730271E+03    5.0989624E+06    5.4730458E+03    5.1038283E+06
    3.70   800.000   -3.094E+02    5.1345372E+06   -8.9074035E+03   -4.0973491E+03    5.1345372E+06    4.0973690E+03    5.1393473E+06
    3.71   800.000   -3.099E+02    5.1677739E+06   -7.6479958E+03   -2.8647403E+03    5.1677739E+06    2.8647613E+03    5.1725571E+06
    3.72   800.000   -3.104E+02    5.1984320E+06   -6.5716466E+03   -1.7899116E+03    5.1984320E+06    1.7899335E+03    5.2032138E+06
    3.73   800.000   -3.109E+02    5.2264360E+06   -5.6893316E+03   -8.8797344E+02    5.2264360E+06    8.8799611E+02    5.2312374E+06
    3.74   800.000   -3.113E+02    5.2518682E+06   -5.0107646E+03   -1.7278098E+02    5.2518682E+06    1.7280435E+02    5.2567062E+06
    3.75   800.000   -3.118E+02    5.2749426E+06   -4.5433060E+03    3.4451336E+02    5.2749426E+06   -3.4448938E+02    5.2798304E+06
    3.76   800.000   -3.123E+02    5.2959635E+06   -4.2912727E+03    6.5649704E+02    5.2959635E+06   -6.5647251E+02    5.3009113E+06
    3.77   800.000   -3.127E+02    5.3152744E+06   -4.2557197E+03    7.6002254E+02    5.3152744E+06   -7.5999753E+02    5.3202902E+06
    3.78   800.000   -3.131E+02    5.3332068E+06   -4.4346629E+03    6.5622071E+02    5.3332068E+06   -6.5619526E+02    5.3382977E+06
    3.79   800.000   -3.135E+02    5.3500358E+06   -4.8236420E+03    3.5007686E+02    5.3500358E+06   -3.5005101E+02    5.3552096E+06
    3.80   800.000   -3.140E+02    5.3659501E+06   -5.4164970E+03   -1.5032038E+02    5.3659502E+06    1.5034657E+02    5.3712164E+06
    3.81   800.000   -3.144E+02    5.3810407E+06   -6.2062468E+03   -8.3474886E+02    5.3810407E+06    8.3477534E+02    5.3864122E+06
    3.82   800.000   -3.148E+02    5.3953082E+06   -7.1859964E+03   -1.6919567E+03    5.3953083E+06    1.6919834E+03    5.4008023E+06
    3.83   800.000   -3.152E+02    5.4086881E+06   -8.3498364E+03   -2.7108394E+03    5.4086881E+06    2.7108663E+03    5.4143271E+06
    3.84   800.000   -3.156E+02    5.4210870E+06   -9.6937117E+03   -3.8816354E+03    5.4210871E+06    3.8816624E+03    5.4268992E+06
    3.85   800.000   -3.159E+02    5.4324248E+06   -1.1216220E+04   -5.1970670E+03    5.4324248E+06    5.1970940E+03    5.4384440E+06
    3.86   800.000   -3.163E+02    5.4426735E+06   -1.2919266E+04   -6.6533170E+03    5.4426736E+06    6.6533439E+03    5.4489396E+06
    3.87   800.000   -3.167E+02    5.4518881E+06   -1.4808454E+04   -8.2507021E+03    5.4518882E+06    8.2507289E+03    5.4584460E+06
    3.88   800.000   -3.170E+02    5.4602223E+06   -1.6893095E+04   -9.9939001E+03    5.4602224E+06    9.9939267E+03    5.4671215E+06
    3.89   800.000   -3.174E+02    5.4679279E+06   -1.9185733E+04   -1.1891629E+04    5.4679279E+06    1.1891656E+04    5.4752220E+06
    3.90   800.000   -3.177E+02    5.4753375E+06   -2.1701162E+04   -1.3955759E+04    5.4753375E+06    1.3955786E+04    5.4830829E+06
    3.91   800.000   -3.181E+02    5.4828317E+06   -2.4455000E+04   -1.6199928E+04    5.4828318E+06    1.6199954E+04    5.4910869E+06
    3.92   800.000   -3.184E+02    5.4907952E+06   -2.7461968E+04   -1.8637831E+04    5.4907952E+06    1.8637856E+04    5.4996194E+06
    3.93   800.000   -3.187E+02    5.4995647E+06   -3.0734037E+04   -2.1281376E+04    5.4995647E+06    2.1281402E+04    5.5090174E+06
    3.94   800.000   -3.191E+02    5.5093761E+06   -3.4278636E+04   -2.4138913E+04    5.5093761E+06    2.4138938E+04    5.5195158E+06
    3.95   800.000   -3.194E+02    5.5203126E+06   -3.8097013E+04   -2.7213640E+04    5.5203126E+06    2.7213664E+04    5.5311960E+06
    3.96   800.000   -3.197E+02    5.5322605E+06   -4.2182795E+04   -3.0502259E+04    5.5322605E+06    3.0502284E+04    5.5439411E+06
    3.97   800.000   -3.200E+02    5.5448749E+06   -4.6520749E+04   -3.3993862E+04    5.5448749E+06    3.3993886E+04    5.5574018E+06
    3.98   800.000   -3.203E+02    5.5575595E+06   -5.1085716E+04   -3.7669000E+04    5.5575595E+06    3.7669023E+04    5.5709763E+06
    3.99   800.000   -3.206E+02    5.5694633E+06   -5.5841772E+04   -4.1498951E+04    5.5694633E+06    4.1498974E+04    5.5838062E+06
    4.00   800.000   -3.209E+02    5.5794942E+06   -6.0741709E+04   -4.5445255E+04    5.5794942E+06    4.5445278E+04    5.5947907E+06
    4.01   800.000   -3.212E+02    5.5863526E+06   -6.5727072E+04   -4.9459674E+04    5.5863526E+06    4.9459695E+04    5.6026200E+06
    4.02   800.000   -3.215E+02    5.5885828E+06   -7.0728955E+04   -5.3484773E+04    5.5885828E+06    5.3484794E+04    5.6058270E+06
    4.03   800.000   -3.218E+02    5.5846424E+06   -7.5669782E+04   -5.7455328E+04    5.5846424E+06    5.7455348E+04    5.6028568E+06
    4.04   800.000   -3.220E+02    5.5729849E+06   -8.0466126E+04   -6.1300621E+04    5.5729848E+06    6.1300640E+04    5.5921503E+06
    4.05   800.000   -3.223E+02    5.5521527E+06   -8.5032446E+04   -6.4947557E+04    5.5521526E+06    6.4947575E+04    5.5722375E+06
    4.06   800.000   -3.226E+02    5.5208738E+06   -8.9285401E+04   -6.8324341E+04    5.5208737E+06    6.8324357E+04    5.5418348E+06
    4.07   800.000   -3.229E+02    5.4781552E+06   -9.3148259E+04   -7.1364295E+04    5.4781551E+06    7.1364310E+04    5.4999391E+06
    4.08   800.000   -3.231E+02    5.4233655E+06   -9.6554850E+04   -7.4009365E+04    5.4233654E+06    7.4009378E+04    5.4459109E+06
    4.09   800.000   -3.234E+02    5.3562991E+06   -9.9452601E+04   -7.6212890E+04    5.3562990E+06    7.6212903E+04    5.3795387E+06
    4.10   800.000   -3.237E+02    5.2772149E+06   -1.0180437E+05   -7.7941385E+04    5.2772148E+06    7.7941396E+04    5.3010778E+06
    4.11   800.000   -3.239E+02    5.1868460E+06   -1.0358900E+05   -7.9175241E+04    5.1868460E+06    7.9175251E+04    5.2112597E+06
    4.12   800.000   -3.242E+02    5.0863777E+06   -1.0480082E+05   -7.9908481E+04    5.0863776E+06    7.9908488E+04    5.1112699E+06
    4.13   800.000   -3.244E+02    4.9773951E+06   -1.0544825E+05   -8.0147778E+04    4.9773950E+06    8.0147785E+04    5.0026955E+06
    4.14   800.000   -3.247E+02    4.8618065E+06   -1.0555205E+05   -7.9911034E+04    4.8618064E+06    7.9911039E+04    4.8874474E+06
    4.15   800.000   -3.250E+02    4.7417471E+06   -1.0514322E+05   -7.9225724E+04    4.7417471E+06    7.9225728E+04    4.7676646E+06
    4.16   800.000   -3.252E+02    4.6194744E+06   -1.0426095E+05   -7.8127192E+04    4.6194743E+06    7.8127194E+04    4.6456081E+06
    4.17   800.000   -3.255E+02    4.4972614E+06   -1.0295062E+05   -7.6656955E+04    4.4972614E+06    7.6656956E+04    4.5235551E+06
    4.18   800.000   -3.258E+02    4.3772989E+06   -1.0126185E+05   -7.4861056E+04    4.3772988E+06    7.4861056E+04    4.4036996E+06
    4.19   800.000   -3.260E+02    4.2616105E+06   -9.9246688E+04   -7.2788478E+04    4.2616105E+06    7.2788476E+04    4.2880687E+06
    4.20   800.000   -3.263E+02    4.1519879E+06   -9.6957954E+04   -7.0489663E+04    4.1519878E+06    7.0489660E+04    4.1784561E+06
    4.21   800.000   -3.266E+02    4.0499457E+06   -9.4447933E+04   -6.8015198E+04    4.0499457E+06    6.8015194E+04    4.0763784E+06
    4.22   800.000   -3.268E+02    3.9566990E+06   -9.1767417E+04   -6.5414729E+04    3.9566990E+06    6.5414723E+04    3.9830517E+06
    4.23   800.000   -3.271E+02    3.8731602E+06   -8.8965227E+04   -6.2736160E+04    3.8731602E+06    6.2736153E+04    3.8993892E+06
    4.24   800.000   -3.274E+02    3.7999535E+06   -8.6088184E+04   -6.0025138E+04    3.7999534E+06    6.0025129E+04    3.8260165E+06
    4.25   800.000   -3.276E+02    3.7374429E+06   -8.3181431E+04   -5.7324772E+04    3.7374428E+06    5.7324762E+04    3.7632995E+06
    4.26   800.000   -3.279E+02    3.6857702E+06   -8.0288948E+04   -5.4675521E+04    3.6857701E+06    5.4675509E+04    3.7113836E+06
    4.27   800.000   -3.282E+02    3.6448978E+06   -7.7454067E+04   -5.2115146E+04    3.6448977E+06    5.2115133E+04    3.6702366E+06
    4.28   800.000   -3.285E+02    3.6146516E+06   -7.4719837E+04   -4.9678681E+04    3.6146515E+06    4.9678667E+04    3.6396927E+06
    4.29   800.000   -3.287E+02    3.5947611E+06   -7.2129107E+04   -4.7398363E+04    3.5947610E+06    4.7398348E+04    3.6194917E+06
    4.30   800.000   -3.290E+02    3.5848921E+06   -6.9724318E+04   -4.5303524E+04    3.5848921E+06    4.5303508E+04    3.6093129E+06
    4.31   800.000   -3.293E+02    3.5846712E+06   -6.7546996E+04   -4.3420458E+04    3.5846712E+06    4.3420441E+04    3.6087977E+06
    4.32   800.000   -3.296E+02    3.5936999E+06   -6.5637035E+04   -4.1772271E+04    3.5936999E+06    4.1772252E+04    3.6175646E+06
    4.33   800.000   -3.299E+02    3.6115615E+06   -6.4031838E+04   -4.0378708E+04    3.6115615E+06    4.0378688E+04    3.6352146E+06
    4.34   800.000   -3.302E+02    3.6378212E+06   -6.2765408E+04   -3.9255978E+04    3.6378211E+06    3.9255958E+04    3.6613305E+06
    4.35   800.000   -3.305E+02    3.6720231E+06   -6.1867460E+04   -3.8416556E+04    3.6720230E+06    3.8416534E+04    3.6954739E+06
    4.36   800.000   -3.308E+02    3.7136890E+06   -6.1362623E+04   -3.7868979E+04    3.7136889E+06    3.7868957E+04    3.7371826E+06
    4.37   800.000   -3.311E+02    3.7623206E+06   -6.1269773E+04   -3.7617687E+04    3.7623205E+06    3.7617664E+04    3.7859726E+06
    4.38   800.000   -3.314E+02    3.8174091E+06   -6.1601532E+04   -3.7662921E+04    3.8174090E+06    3.7662898E+04    3.8413476E+06
    4.39   800.000   -3.317E+02    3.8784540E+06   -6.2363947E+04   -3.8000763E+04    3.8784539E+06    3.8000740E+04    3.9028171E+06
    4.40   800.000   -3.320E+02    3.9449901E+06   -6.3556313E+04   -3.8623327E+04    3.9449900E+06    3.8623303E+04    3.9699230E+06
    4.41   800.000   -3.323E+02    4.0166219E+06   -6.5171124E+04   -3.9519115E+04    4.0166218E+06    3.9519091E+04    4.0422738E+06
    4.42   800.000   -3.326E+02    4.0930614E+06   -6.7194097E+04   -4.0673515E+04    4.0930613E+06    4.0673491E+04    4.1195819E+06
    4.43   800.000   -3.329E+02    4.1741662E+06   -6.9604195E+04   -4.2069369E+04    4.1741661E+06    4.2069345E+04    4.2017009E+06
    4.44   800.000   -3.332E+02    4.2599712E+06   -7.2373638E+04   -4.3687526E+04    4.2599711E+06    4.3687503E+04    4.2886572E+06
    4.45   800.000   -3.336E+02    4.3507103E+06   -7.5467887E+04   -4.5507313E+04    4.3507102E+06    4.5507290E+04    4.3806708E+06
    4.46   800.000   -3.339E+02    4.4468242E+06   -7.8845656E+04   -4.7506853E+04    4.4468241E+06    4.7506830E+04    4.4781629E+06
    4.47   800.000   -3.342E+02    4.5489497E+06   -8.2459082E+04   -4.9663248E+04    4.5489497E+06    4.9663225E+04    4.5817455E+06
    4.48   800.000   -3.345E+02    4.6578923E+06   -8.6254195E+04   -5.1952661E+04    4.6578922E+06    5.1952639E+04    4.6921938E+06
    4.49   800.000   -3.348E+02    4.7745791E+06   -9.0171862E+04   -5.4350395E+04    4.7745790E+06    5.4350373E+04    4.8104005E+06
    4.50   800.000   -3.352E+02    4.8999973E+06   -9.4149307E+04   -5.6831064E+04    4.8999973E+06    5.6831043E+04    4.9373155E+06
    4.51   800.000   -3.355E+02    5.0351203E+06   -9.8122236E+04   -5.9368924E+04    5.0351202E+06    5.9368902E+04    5.0738736E+06
    4.52   800.000   -3.358E+02    5.1808257E+06   -1.0202743E+05   -6.1938358E+04    5.1808256E+06    6.1938337E+04    5.2209147E+06
    4.53   800.000   -3.361E+02    5.3378116E+06   -1.0580556E+05   -6.4514490E+04    5.3378116E+06    6.4514469E+04    5.3791026E+06
    4.54   800.000   -3.365E+02    5.5065162E+06   -1.0940390E+05   -6.7073781E+04    5.5065161E+06    6.7073761E+04    5.5488463E+06
    4.55   800.000   -3.368E+02    5.6870453E+06   -1.1277857E+05   -6.9594531E+04    5.6870452E+06    6.9594511E+04    5.7302292E+06
    4.56   800.000   -3.371E+02    5.8791140E+06   -1.1589605E+05   -7.2057170E+04    5.8791139E+06    7.2057150E+04    5.9229528E+06
    4.57   800.000   -3.375E+02    6.0820064E+06   -1.1873384E+05   -7.4444355E+04    6.0820063E+06    7.4444336E+04    6.1262958E+06
    4.58   800.000   -3.378E+02    6.2945562E+06   -1.2128025E+05   -7.6740909E+04    6.2945561E+06    7.6740891E+04    6.3390955E+06
    4.59   800.000   -3.382E+02    6.5151524E+06   -1.2353360E+05   -7.8933736E+04    6.5151523E+06    7.8933717E+04    6.5597522E+06
    4.60   800.000   -3.385E+02    6.7417697E+06   -1.2550098E+05   -8.1011817E+04    6.7417696E+06    8.1011800E+04    6.7862588E+06
    4.61   800.000   -3.389E+02    6.9720248E+06   -1.2719687E+05   -8.2966389E+04    6.9720248E+06    8.2966371E+04    7.0162552E+06
    4.62   800.000   -3.393E+02    7.2032567E+06   -1.2864178E+05   -8.4791251E+04    7.2032566E+06    8.4791234E+04    7.2471071E+06
    4.63   800.000   -3.396E+02    7.4326263E+06   -1.2986091E+05   -8.6483110E+04    7.4326263E+06    8.6483093E+04    7.4760041E+06
    4.64   800.000   -3.400E+02    7.6572327E+06   -1.3088272E+05   -8.8041726E+04    7.6572326E+06    8.8041710E+04    7.7000736E+06
    4.65   800.000   -3.404E+02    7.8742349E+06   -1.3173721E+05   -8.9469623E+04    7.8742349E+06    8.9469608E+04    7.9165025E+06
    4.66   800.000   -3.407E+02    8.0809750E+06   -1.3245386E+05   -9.0771146E+04    8.0809750E+06    9.0771131E+04    8.1226577E+06
    4.67   800.000   -3.411E+02    8.2750894E+06   -1.3305892E+05   -9.1950790E+04    8.2750894E+06    9.1950775E+04    8.3161975E+06
    4.68   800.000   -3.415E+02    8.4546016E+06   -1.3357233E+05   -9.3010889E+04    8.4546016E+06    9.3010874E+04    8.4951630E+06
    4.69   800.000   -3.419E+02    8.6179876E+06   -1.3400444E+05   -9.3948964E+04    8.6179876E+06    9.3948950E+04    8.6580430E+06
    4.70   800.000   -3.423E+02    8.7642093E+06   -1.3435300E+05   -9.4755209E+04    8.7642092E+06    9.4755196E+04    8.8038070E+06
    4.71   800.000   -3.426E+02    8.8927147E+06   -1.3460105E+05   -9.5410673E+04    8.8927147E+06    9.5410660E+04    8.9319051E+06
    4.72   800.000   -3.430E+02    9.0034090E+06   -1.3471614E+05   -9.5886667E+04    9.0034089E+06    9.5886654E+04    9.0422384E+06
    4.73   800.000   -3.434E+02    9.0966019E+06   -1.3465135E+05   -9.6145750E+04    9.0966019E+06    9.6145737E+04    9.1351075E+06
    4.74   800.000   -3.438E+02    9.1729440E+06   -1.3434825E+05   -9.6144364E+04    9.1729440E+06    9.6144352E+04    9.2111479E+06
    4.75   800.000   -3.442E+02    9.2333589E+06   -1.3374155E+05   -9.5836879E+04    9.2333589E+06    9.5836868E+04    9.2712636E+06
    4.76   800.000   -3.446E+02    9.2789834E+06   -1.3276507E+05   -9.5180506E+04    9.2789834E+06    9.5180496E+04    9.3165680E+06
    4.77   800.000   -3.450E+02    9.3111190E+06   -1.3135821E+05   -9.4140364E+04    9.3111190E+06    9.4140355E+04    9.3483369E+06
    4.78   800.000   -3.453E+02    9.3311980E+06   -1.2947221E+05   -9.2693940E+04    9.3311979E+06    9.2693933E+04    9.3679762E+06
    4.79   800.000   -3.457E+02    9.3407603E+06   -1.2707539E+05   -9.0834292E+04    9.3407603E+06    9.0834287E+04    9.3770013E+06
    4.80   800.000   -3.461E+02    9.3414376E+06   -1.2415671E+05   -8.8571551E+04    9.3414375E+06    8.8571547E+04    9.3770227E+06
    4.81   800.000   -3.465E+02    9.3349361E+06   -1.2072741E+05   -8.5932582E+04    9.3349361E+06    8.5932581E+04    9.3697309E+06
    4.82   800.000   -3.469E+02    9.3230134E+06   -1.1682049E+05   -8.2958955E+04    9.3230134E+06    8.2958956E+04    9.3568749E+06
    4.83   800.000   -3.473E+02    9.3074441E+06   -1.1248823E+05   -7.9703580E+04    9.3074440E+06    7.9703584E+04    9.3402287E+06
    4.84   800.000   -3.476E+02    9.2899725E+06   -1.0779831E+05   -7.6226569E+04    9.2899725E+06    7.6226575E+04    9.3215442E+06
    4.85   800.000   -3.480E+02    9.2722544E+06   -1.0282880E+05   -7.2590889E+04    9.2722544E+06    7.2590898E+04    9.3024923E+06
    4.86   800.000   -3.484E+02    9.2557893E+06   -9.7662994E+04   -6.8858351E+04    9.2557892E+06    6.8858362E+04    9.2845939E+06
    4.87   800.000   -3.488E+02    9.2418501E+06   -9.2384272E+04   -6.5086324E+04    9.2418501E+06    6.5086337E+04    9.2691481E+06
    4.88   800.000   -3.492E+02    9.2314156E+06   -8.7071783E+04   -6.1325405E+04    9.2314155E+06    6.1325421E+04    9.2571619E+06
    4.89   800.000   -3.495E+02    9.2251100E+06   -8.1796998E+04   -5.7618089E+04    9.2251100E+06    5.7618107E+04    9.2492889E+06
    4.90   800.000   -3.499E+02    9.2231587E+06   -7.6621323E+04   -5.3998303E+04    9.2231587E+06    5.3998323E+04    9.2457817E+06
    4.91   800.000   -3.503E+02    9.2253617E+06   -7.1594728E+04   -5.0491619E+04    9.2253616E+06    5.0491640E+04    9.2464648E+06
    4.92   800.000   -3.507E+02    9.2310896E+06   -6.6755226E+04   -4.7115893E+04    9.2310895E+06    4.7115916E+04    9.2507289E+06
    4.93   800.000   -3.510E+02    9.2393040E+06   -6.2129099E+04   -4.3882153E+04    9.2393040E+06    4.3882177E+04    9.2575510E+06
    4.94   800.000   -3.514E+02    9.2486010E+06   -5.7731719E+04   -4.0795633E+04    9.2486010E+06    4.0795658E+04    9.2655371E+06
    4.95   800.000   -3.518E+02    9.2572738E+06   -5.3568920E+04   -3.7856945E+04    9.2572738E+06    3.7856971E+04    9.2729858E+06
    4.96   800.000   -3.522E+02    9.2633912E+06   -4.9638889E+04   -3.5063424E+04    9.2633912E+06    3.5063451E+04    9.2779667E+06
    4.97   800.000   -3.526E+02    9.2648837E+06   -4.5934522E+04   -3.2410710E+04    9.2648837E+06    3.2410738E+04    9.2784075E+06
    4.98   800.000   -3.529E+02    9.2596301E+06   -4.2446134E+04   -2.9894535E+04    9.2596301E+06    2.9894564E+04    9.2721817E+06
    4.99   800.000   -3.533E+02    9.2455388E+06   -3.9164322E+04   -2.7512608E+04    9.2455388E+06    2.7512638E+04    9.2571905E+06
    5.00   800.000   -3.537E+02    9.2206167E+06   -3.6082669E+04   -2.5266387E+04    9.2206167E+06    2.5266418E+04    9.2314330E+06
# T(K) = 900.00   Npoints =    1001   V(cm^3) =  1.231E-20
   -5.00   900.000    3.724E+02    2.6319872E+06   -4.3127657E+04   -3.9513565E+04    2.6319872E+06    3.9513568E+04    2.6356013E+06
   -4.99   900.000    3.714E+02    2.6670209E+06   -4.2792513E+04   -3.9215986E+04    2.6670210E+06    3.9215988E+04    2.6705975E+06
   -4.98   900.000    3.705E+02    2.6995793E+06   -4.2324948E+04   -3.8799425E+04    2.6995793E+06    3.8799427E+04    2.7031048E+06
   -4.97   900.000    3.695E+02    2.7298560E+06   -4.1729460E+04   -3.8267180E+04    2.7298560E+06    3.8267181E+04    2.7333183E+06
   -4.96   900.000    3.686E+02    2.7579997E+06   -4.1011309E+04   -3.7623084E+04    2.7579997E+06    3.7623084E+04    2.7613879E+06
   -4.95   900.000    3.677E+02    2.7841054E+06   -4.0176754E+04   -3.6871787E+04    2.7841054E+06    3.6871786E+04    2.7874103E+06
   -4.94   900.000    3.667E+02    2.8082093E+06   -3.9233304E+04   -3.6019072E+04    2.8082093E+06    3.6019071E+04    2.8114235E+06
   -4.93   900.000    3.658E+02    2.8302874E+06   -3.8189963E+04   -3.5072146E+04    2.8302874E+06    3.5072144E+04    2.8334052E+06
   -4.92   900.000    3.649E+02    2.8502573E+06   -3.7057394E+04   -3.4039861E+04    2.8502574E+06    3.4039859E+04    2.8532749E+06
   -4.91   900.000    3.641E+02    2.8679837E+06   -3.5847971E+04   -3.2932822E+04    2.8679837E+06    3.2932819E+04    2.8708989E+06
   -4.90   900.000    3.632E+02    2.8832861E+06   -3.4575696E+04   -3.1763343E+04    2.8832861E+06    3.1763340E+04    2.8860985E+06
   -4.89   900.000    3.623E+02    2.8959497E+06   -3.3255943E+04   -3.0545248E+04    2.8959497E+06    3.0545244E+04    2.8986604E+06
   -4.88   900.000    3.615E+02    2.9057370E+06   -3.1905059E+04   -2.9293501E+04    2.9057370E+06    2.9293496E+04    2.9083486E+06
   -4.87   900.000    3.606E+02    2.9124008E+06   -3.0539834E+04   -2.8023710E+04    2.9124009E+06    2.8023705E+04    2.9149170E+06
   -4.86   900.000    3.598E+02    2.9156967E+06   -2.9176875E+04   -2.6751527E+04    2.9156968E+06    2.6751521E+04    2.9181221E+06
   -4.85   900.000    3.590E+02    2.9153946E+06   -2.7831959E+04   -2.5492010E+04    2.9153946E+06    2.5492004E+04    2.9177346E+06
   -4.84   900.000    3.581E+02    2.9112892E+06   -2.6519404E+04   -2.4259002E+04    2.9112892E+06    2.4258996E+04    2.9135496E+06
   -4.83   900.000    3.573E+02    2.9032084E+06   -2.5251535E+04   -2.3064589E+04    2.9032084E+06    2.3064584E+04    2.9053953E+06
   -4.82   900.000    3.565E+02    2.8910195E+06   -2.4038279E+04   -2.1918686E+04    2.8910195E+06    2.1918680E+04    2.8931391E+06
   -4.81   900.000    3.557E+02    2.8746339E+06   -2.2886946E+04   -2.0828784E+04    2.8746339E+06    2.0828778E+04    2.8766920E+06
   -4.80   900.000    3.550E+02    2.8540093E+06   -2.1802179E+04   -1.9799878E+04    2.8540093E+06    1.9799872E+04    2.8560116E+06
   -4.79   900.000    3.542E+02    2.8291504E+06   -2.0786086E+04   -1.8834561E+04    2.8291504E+06    1.8834555E+04    2.8311020E+06
   -4.78   900.000    3.534E+02    2.8001080E+06   -1.9838523E+04   -1.7933264E+04    2.8001080E+06    1.7933258E+04    2.8020132E+06
   -4.77   900.000    3.526E+02    2.7669762E+06   -1.8957475E+04   -1.7094598E+04    2.7669762E+06    1.7094591E+04    2.7688391E+06
   -4.76   900.000    3.519E+02    2.7298899E+06   -1.8139488E+04   -1.6315745E+04    2.7298899E+06    1.6315739E+04    2.7317136E+06
   -4.75   900.000    3.511E+02    2.6890192E+06   -1.7380116E+04   -1.5592871E+04    2.6890192E+06    1.5592864E+04    2.6908064E+06
   -4.74   900.000    3.504E+02    2.6445648E+06   -1.6674320E+04   -1.4921492E+04    2.6445648E+06    1.4921485E+04    2.6463176E+06
   -4.73   900.000    3.497E+02    2.5967522E+06   -1.6016806E+04   -1.4296797E+04    2.5967522E+06    1.4296790E+04    2.5984722E+06
   -4.72   900.000    3.489E+02    2.5458255E+06   -1.5402282E+04   -1.3713891E+04    2.5458255E+06    1.3713884E+04    2.5475138E+06
   -4.71   900.000    3.482E+02    2.4920411E+06   -1.4825638E+04   -1.3167973E+04    2.4920411E+06    1.3167965E+04    2.4936987E+06
   -4.70   900.000    3.475E+02    2.4356626E+06   -1.4282050E+04   -1.2654447E+04    2.4356626E+06    1.2654440E+04    2.4372902E+06
   -4.69   900.000    3.468E+02    2.3769550E+06   -1.3767040E+04   -1.2168996E+04    2.3769550E+06    1.2168989E+04    2.3785531E+06
   -4.68   900.000    3.461E+02    2.3161807E+06   -1.3276495E+04   -1.1707615E+04    2.3161807E+06    1.1707608E+04    2.3177496E+06
   -4.67   900.000    3.454E+02    2.2535955E+06   -1.2806674E+04   -1.1266635E+04    2.2535955E+06    1.1266628E+04    2.2551355E+06
   -4.66   900.000    3.447E+02    2.1894462E+06   -1.2354205E+04   -1.0842735E+04    2.1894462E+06    1.0842728E+04    2.1909576E+06
   -4.65   900.000    3.441E+02    2.1239688E+06   -1.1916081E+04   -1.0432955E+04    2.1239688E+06    1.0432947E+04    2.1254519E+06
   -4.64   900.000    3.434E+02    2.0573877E+06   -1.1489664E+04   -1.0034700E+04    2.0573877E+06    1.0034693E+04    2.0588426E+06
   -4.63   900.000    3.428E+02    1.9899153E+06   -1.1072675E+04   -9.6457470E+03    1.9899153E+06    9.6457395E+03    1.9913423E+06
   -4.62   900.000    3.421E+02    1.9217531E+06   -1.0663197E+04   -9.2642380E+03    1.9217531E+06    9.2642307E+03    1.9231520E+06
   -4.61   900.000    3.415E+02    1.8530919E+06   -1.0259653E+04   -8.8886691E+03    1.8530919E+06    8.8886618E+03    1.8544629E+06
   -4.60   900.000    3.409E+02    1.7841143E+06   -9.8607900E+03   -8.5178680E+03    1.7841143E+06    8.5178609E+03    1.7854572E+06
   -4.59   900.000    3.403E+02    1.7149957E+06   -9.4656525E+03   -8.1509669E+03    1.7149957E+06    8.1509599E+03    1.7163104E+06
   -4.58   900.000    3.397E+02    1.6459073E+06   -9.0735500E+03   -7.7873699E+03    1.6459073E+06    7.7873630E+03    1.6471935E+06
   -4.57   900.000    3.391E+02    1.5770176E+06   -8.6840269E+03   -7.4267206E+03    1.5770176E+06    7.4267138E+03    1.5782749E+06
   -4.56   900.000    3.385E+02    1.5084954E+06   -8.2968347E+03   -7.0688712E+03    1.5084954E+06    7.0688645E+03    1.5097233E+06
   -4.55   900.000    3.380E+02    1.4405111E+06   -7.9119099E+03   -6.7138564E+03    1.4405111E+06    6.7138498E+03    1.4417091E+06
   -4.54   900.000    3.374E+02    1.3732386E+06   -7.5293595E+03   -6.3618733E+03    1.3732386E+06    6.3618669E+03    1.3744061E+06
   -4.53   900.000    3.369E+02    1.3068560E+06   -7.1494550E+03   -6.0132678E+03    1.3068560E+06    6.0132615E+03    1.3079922E+06
   -4.52   900.000    3.364E+02    1.2415453E+06   -6.7726334E+03   -5.6685274E+03    1.2415454E+06    5.6685212E+03    1.2426495E+06
   -4.51   900.000    3.359E+02    1.1774919E+06   -6.3995038E+03   -5.3282789E+03    1.1774919E+06    5.3282728E+03    1.1785631E+06
   -4.50   900.000    3.353E+02    1.1148823E+06   -6.0308560E+03   -4.9932895E+03    1.1148823E+06    4.9932836E+03    1.1159199E+06
   -4.49   900.000    3.348E+02    1.0539024E+06   -5.6676666E+03   -4.6644670E+03    1.0539024E+06    4.6644613E+03    1.0549056E+06
   -4.48   900.000    3.343E+02    9.9473381E+05   -5.3110991E+03   -4.3428565E+03    9.9473384E+05    4.3428509E+03    9.9570209E+05
   -4.47   900.000    3.338E+02    9.3755132E+05   -4.9624927E+03   -4.0296292E+03    9.3755136E+05    4.0296238E+03    9.3848422E+05
   -4.46   900.000    3.334E+02    8.8251921E+05   -4.6233377E+03   -3.7260622E+03    8.8251925E+05    3.7260571E+03    8.8341653E+05
   -4.45   900.000    3.329E+02    8.2978829E+05   -4.2952375E+03   -3.4335071E+03    8.2978832E+05    3.4335023E+03    8.3065005E+05
   -4.44   900.000    3.324E+02    7.7949294E+05   -3.9798571E+03   -3.1533488E+03    7.7949298E+05    3.1533443E+03    7.8031949E+05
   -4.43   900.000    3.319E+02    7.3174862E+05   -3.6788627E+03   -2.8869580E+03    7.3174865E+05    2.8869537E+03    7.3254056E+05
   -4.42   900.000    3.313E+02    6.8664965E+05   -3.3938580E+03   -2.6356404E+03    6.8664968E+05    2.6356363E+03    6.8740790E+05
   -4.41   900.000    3.308E+02    6.4426750E+05   -3.1263207E+03   -2.4005883E+03    6.4426753E+05    2.4005845E+03    6.4499326E+05
   -4.40   900.000    3.303E+02    6.0464948E+05   -2.8775466E+03   -2.1828384E+03    6.0464951E+05    2.1828349E+03    6.0534422E+05
   -4.39   900.000    3.297E+02    5.6781790E+05   -2.6486041E+03   -1.9832385E+03    5.6781793E+05    1.9832352E+03    5.6848329E+05
   -4.38   900.000    3.292E+02    5.3376968E+05   -2.4403030E+03   -1.8024259E+03    5.3376971E+05    1.8024228E+03    5.3440759E+05
   -4.37   900.000    3.286E+02    5.0247659E+05   -2.2531778E+03   -1.6408186E+03    5.0247662E+05    1.6408157E+03    5.0308898E+05
   -4.36   900.000    3.280E+02    4.7388593E+05   -2.0874857E+03   -1.4986168E+03    4.7388595E+05    1.4986142E+03    4.7447482E+05
   -4.35   900.000    3.273E+02    4.4792188E+05   -1.9432189E+03   -1.3758153E+03    4.4792190E+05    1.3758127E+03    4.4848931E+05
   -4.34   900.000    3.266E+02    4.2448744E+05   -1.8201270E+03   -1.2722227E+03    4.2448746E+05    1.2722203E+03    4.2503537E+05
   -4.33   900.000    3.259E+02    4.0346690E+05   -1.7177490E+03   -1.1874877E+03    4.0346692E+05    1.1874854E+03    4.0399719E+05
   -4.32   900.000    3.252E+02    3.8472881E+05   -1.6354509E+03   -1.1211272E+03    3.8472883E+05    1.1211250E+03    3.8524315E+05
   -4.31   900.000    3.244E+02    3.6812928E+05   -1.5724670E+03   -1.0725575E+03    3.6812930E+05    1.0725554E+03    3.6862921E+05
   -4.30   900.000    3.235E+02    3.5351554E+05   -1.5279423E+03   -1.0411245E+03    3.5351556E+05    1.0411224E+03    3.5400237E+05
   -4.29   900.000    3.226E+02    3.4072947E+05   -1.5009725E+03   -1.0261324E+03    3.4072949E+05    1.0261304E+03    3.4120433E+05
   -4.28   900.000    3.217E+02    3.2961102E+05   -1.4906430E+03   -1.0268706E+03    3.2961104E+05    1.0268687E+03    3.3007481E+05
   -4.27   900.000    3.207E+02    3.2000126E+05   -1.4960604E+03   -1.0426366E+03    3.2000128E+05    1.0426347E+03    3.2045470E+05
   -4.26   900.000    3.196E+02    3.1174501E+05   -1.5163798E+03   -1.0727542E+03    3.1174502E+05    1.0727524E+03    3.1218865E+05
   -4.25   900.000    3.184E+02    3.0469288E+05   -1.5508227E+03   -1.1165867E+03    3.0469289E+05    1.1165849E+03    3.0512713E+05
   -4.24   900.000    3.172E+02    2.9870277E+05   -1.5986872E+03   -1.1735430E+03    2.9870278E+05    1.1735413E+03    2.9912792E+05
   -4.23   900.000    3.159E+02    2.9364083E+05   -1.6593481E+03   -1.2430772E+03    2.9364084E+05    1.2430756E+03    2.9405711E+05
   -4.22   900.000    3.146E+02    2.8938195E+05   -1.7322470E+03   -1.3246788E+03    2.8938197E+05    1.3246772E+03    2.8978953E+05
   -4.21   900.000    3.131E+02    2.8580995E+05   -1.8168731E+03   -1.4178561E+03    2.8580997E+05    1.4178546E+03    2.8620898E+05
   -4.20   900.000    3.116E+02    2.8281755E+05   -1.9127355E+03   -1.5221112E+03    2.8281756E+05    1.5221099E+03    2.8320819E+05
   -4.19   900.000    3.099E+02    2.8030634E+05   -2.0193299E+03   -1.6369105E+03    2.8030635E+05    1.6369092E+03    2.8068877E+05
   -4.18   900.000    3.082E+02    2.7818682E+05   -2.1361018E+03   -1.7616520E+03    2.7818683E+05    1.7616508E+03    2.7856128E+05
   -4.17   900.000    3.064E+02    2.7637859E+05   -2.2624131E+03   -1.8956355E+03    2.7637860E+05    1.8956345E+03    2.7674538E+05
   -4.16   900.000    3.044E+02    2.7481079E+05   -2.3975143E+03   -2.0380391E+03    2.7481080E+05    2.0380381E+03    2.7517028E+05
   -4.15   900.000    3.024E+02    2.7342273E+05   -2.5405287E+03   -2.1879066E+03    2.7342274E+05    2.1879058E+03    2.7377536E+05
   -4.14   900.000    3.002E+02    2.7216464E+05   -2.6904522E+03   -2.3441508E+03    2.7216465E+05    2.3441500E+03    2.7251095E+05
   -4.13   900.000    2.979E+02    2.7099857E+05   -2.8461694E+03   -2.5055719E+03    2.7099858E+05    2.5055712E+03    2.7133918E+05
   -4.12   900.000    2.956E+02    2.6989914E+05   -3.0064866E+03   -2.6708929E+03    2.6989915E+05    2.6708922E+03    2.7023474E+05
   -4.11   900.000    2.931E+02    2.6885417E+05   -3.1701786E+03   -2.8388076E+03    2.6885418E+05    2.8388070E+03    2.6918555E+05
   -4.10   900.000    2.904E+02    2.6786500E+05   -3.3360433E+03   -3.0080370E+03    2.6786501E+05    3.0080364E+03    2.6819302E+05
   -4.09   900.000    2.877E+02    2.6694637E+05   -3.5029603E+03   -3.1773878E+03    2.6694638E+05    3.1773872E+03    2.6727195E+05
   -4.08   900.000    2.849E+02    2.6612582E+05   -3.6699448E+03   -3.3458073E+03    2.6612583E+05    3.3458067E+03    2.6644997E+05
   -4.07   900.000    2.819E+02    2.6544255E+05   -3.8361932E+03   -3.5124292E+03    2.6544256E+05    3.5124286E+03    2.6576632E+05
   -4.06   900.000    2.789E+02    2.6494580E+05   -4.0011152E+03   -3.6766066E+03    2.6494580E+05    3.6766060E+03    2.6527031E+05
   -4.05   900.000    2.757E+02    2.6469270E+05   -4.1643514E+03   -3.8379297E+03    2.6469271E+05    3.8379291E+03    2.6501913E+05
   -4.04   900.000    2.725E+02    2.6474586E+05   -4.3257756E+03   -3.9962300E+03    2.6474586E+05    3.9962292E+03    2.6507541E+05
   -4.03   900.000    2.692E+02    2.6517061E+05   -4.4854844E+03   -4.1515703E+03    2.6517062E+05    4.1515696E+03    2.6550453E+05
   -4.02   900.000    2.658E+02    2.6603234E+05   -4.6437758E+03   -4.3042264E+03    2.6603235E+05    4.3042255E+03    2.6637190E+05
   -4.01   900.000    2.623E+02    2.6739377E+05   -4.8011212E+03   -4.4546596E+03    2.6739377E+05    4.4546588E+03    2.6774023E+05
   -4.00   900.000    2.588E+02    2.6931257E+05   -4.9581327E+03   -4.6034874E+03    2.6931257E+05    4.6034865E+03    2.6966722E+05
   -3.99   900.000    2.552E+02    2.7183938E+05   -5.1155282E+03   -4.7514494E+03    2.7183938E+05    4.7514484E+03    2.7220346E+05
   -3.98   900.000    2.516E+02    2.7501624E+05   -5.2740961E+03   -4.8993742E+03    2.7501624E+05    4.8993733E+03    2.7539097E+05
   -3.97   900.000    2.479E+02    2.7887561E+05   -5.4346596E+03   -5.0481443E+03    2.7887561E+05    5.0481433E+03    2.7926213E+05
   -3.96   900.000    2.442E+02    2.8343987E+05   -5.5980414E+03   -5.1986603E+03    2.8343987E+05    5.1986593E+03    2.8383925E+05
   -3.95   900.000    2.405E+02    2.8872137E+05   -5.7650284E+03   -5.3518045E+03    2.8872137E+05    5.3518034E+03    2.8913460E+05
   -3.94   900.000    2.367E+02    2.9472285E+05   -5.9363369E+03   -5.5084041E+03    2.9472285E+05    5.5084031E+03    2.9515078E+05
   -3.93   900.000    2.329E+02    3.0143814E+05   -6.1125804E+03   -5.6691951E+03    3.0143814E+05    5.6691940E+03    3.0188152E+05
   -3.92   900.000    2.292E+02    3.0885309E+05   -6.2942393E+03   -5.8347879E+03    3.0885309E+05    5.8347867E+03    3.0931254E+05
   -3.91   900.000    2.254E+02    3.1694645E+05   -6.4816367E+03   -6.0056374E+03    3.1694645E+05    6.0056363E+03    3.1742245E+05
   -3.90   900.000    2.216E+02    3.2569069E+05   -6.6749197E+03   -6.1820205E+03    3.2569068E+05    6.1820193E+03    3.2618358E+05
   -3.89   900.000    2.178E+02    3.3505258E+05   -6.8740494E+03   -6.3640203E+03    3.3505258E+05    6.3640191E+03    3.3556261E+05
   -3.88   900.000    2.141E+02    3.4499359E+05   -7.0787986E+03   -6.5515208E+03    3.4499358E+05    6.5515195E+03    3.4552086E+05
   -3.87   900.000    2.104E+02    3.5546984E+05   -7.2887587E+03   -6.7442112E+03    3.5546983E+05    6.7442099E+03    3.5601438E+05
   -3.86   900.000    2.068E+02    3.6643197E+05   -7.5033515E+03   -6.9415986E+03    3.6643196E+05    6.9415972E+03    3.6699371E+05
   -3.85   900.000    2.031E+02    3.7782468E+05   -7.7218476E+03   -7.1430271E+03    3.7782467E+05    7.1430257E+03    3.7840349E+05
   -3.84   900.000    1.996E+02    3.8958628E+05   -7.9433845E+03   -7.3477014E+03    3.8958627E+05    7.3476999E+03    3.9018195E+05
   -3.83   900.000    1.961E+02    4.0164823E+05   -8.1669848E+03   -7.5547100E+03    4.0164822E+05    7.5547084E+03    4.0226049E+05
   -3.82   900.000    1.927E+02    4.1393493E+05   -8.3915701E+03   -7.7630467E+03    4.1393492E+05    7.7630450E+03    4.1456345E+05
   -3.81   900.000    1.893E+02    4.2636380E+05   -8.6159696E+03   -7.9716266E+03    4.2636379E+05    7.9716247E+03    4.2700814E+05
   -3.80   900.000    1.861E+02    4.3884575E+05   -8.8389237E+03   -8.1792964E+03    4.3884574E+05    8.1792945E+03    4.3950537E+05
   -3.79   900.000    1.829E+02    4.5128614E+05   -9.0590827E+03   -8.3848400E+03    4.5128613E+05    8.3848379E+03    4.5196037E+05
   -3.78   900.000    1.798E+02    4.6358621E+05   -9.2750057E+03   -8.5869793E+03    4.6358620E+05    8.5869771E+03    4.6427422E+05
   -3.77   900.000    1.769E+02    4.7564491E+05   -9.4851605E+03   -8.7843769E+03    4.7564490E+05    8.7843746E+03    4.7634568E+05
   -3.76   900.000    1.740E+02    4.8736110E+05   -9.6879323E+03   -8.9756415E+03    4.8736108E+05    8.9756391E+03    4.8807337E+05
   -3.75   900.000    1.712E+02    4.9863594E+05   -9.8816420E+03   -9.1593411E+03    4.9863592E+05    9.1593387E+03    4.9935822E+05
   -3.74   900.000    1.686E+02    5.0937542E+05   -1.0064579E+04   -9.3340269E+03    5.0937540E+05    9.3340244E+03    5.1010595E+05
   -3.73   900.000    1.660E+02    5.1949278E+05   -1.0235045E+04   -9.4982663E+03    5.1949277E+05    9.4982637E+03    5.2022955E+05
   -3.72   900.000    1.636E+02    5.2891075E+05   -1.0391412E+04   -9.6506851E+03    5.2891074E+05    9.6506824E+03    5.2965147E+05
   -3.71   900.000    1.613E+02    5.3756340E+05   -1.0532187E+04   -9.7900149E+03    5.3756338E+05    9.7900123E+03    5.3830555E+05
   -3.70   900.000    1.590E+02    5.4539748E+05   -1.0656072E+04   -9.9151406E+03    5.4539746E+05    9.9151381E+03    5.4613839E+05
   -3.69   900.000    1.569E+02    5.5237328E+05   -1.0762028E+04   -1.0025144E+04    5.5237326E+05    1.0025141E+04    5.5311015E+05
   -3.68   900.000    1.549E+02    5.5846481E+05   -1.0849326E+04   -1.0119340E+04    5.5846479E+05    1.0119338E+04    5.5919478E+05
   -3.67   900.000    1.529E+02    5.6365946E+05   -1.0917585E+04   -1.0197309E+04    5.6365945E+05    1.0197307E+04    5.6437973E+05
   -3.66   900.000    1.511E+02    5.6795733E+05   -1.0966808E+04   -1.0258918E+04    5.6795731E+05    1.0258915E+04    5.6866520E+05
   -3.65   900.000    1.493E+02    5.7137018E+05   -1.0997400E+04   -1.0304341E+04    5.7137017E+05    1.0304339E+04    5.7206322E+05
   -3.64   900.000    1.476E+02    5.7392053E+05   -1.1010186E+04   -1.0334086E+04    5.7392052E+05    1.0334084E+04    5.7459662E+05
   -3.63   900.000    1.460E+02    5.7564082E+05   -1.1006429E+04   -1.0349014E+04    5.7564081E+05    1.0349013E+04    5.7629822E+05
   -3.62   900.000    1.445E+02    5.7657285E+05   -1.0987836E+04   -1.0350370E+04    5.7657284E+05    1.0350369E+04    5.7721031E+05
   -3.61   900.000    1.430E+02    5.7676760E+05   -1.0956570E+04   -1.0339804E+04    5.7676759E+05    1.0339803E+04    5.7738435E+05
   -3.60   900.000    1.416E+02    5.7628519E+05   -1.0915244E+04   -1.0319390E+04    5.7628518E+05    1.0319389E+04    5.7688104E+05
   -3.59   900.000    1.402E+02    5.7519501E+05   -1.0866900E+04   -1.0291623E+04    5.7519500E+05    1.0291623E+04    5.7577027E+05
   -3.58   900.000    1.389E+02    5.7357556E+05   -1.0814964E+04   -1.0259402E+04    5.7357555E+05    1.0259401E+04    5.7413111E+05
   -3.57   900.000    1.376E+02    5.7151402E+05   -1.0763184E+04   -1.0225968E+04    5.7151401E+05    1.0225968E+04    5.7205123E+05
   -3.56   900.000    1.364E+02    5.6910518E+05   -1.0715524E+04   -1.0194834E+04    5.6910518E+05    1.0194834E+04    5.6962587E+05
   -3.55   900.000    1.352E+02    5.6644970E+05   -1.0676054E+04   -1.0169664E+04    5.6644970E+05    1.0169664E+04    5.6695609E+05
   -3.54   900.000    1.340E+02    5.6365171E+05   -1.0648810E+04   -1.0154152E+04    5.6365171E+05    1.0154152E+04    5.6414636E+05
   -3.53   900.000    1.329E+02    5.6081586E+05   -1.0637649E+04   -1.0151878E+04    5.6081585E+05    1.0151878E+04    5.6130162E+05
   -3.52   900.000    1.318E+02    5.5804401E+05   -1.0646113E+04   -1.0166168E+04    5.5804401E+05    1.0166169E+04    5.5852395E+05
   -3.51   900.000    1.307E+02    5.5543192E+05   -1.0677297E+04   -1.0199964E+04    5.5543192E+05    1.0199964E+04    5.5590925E+05
   -3.50   900.000    1.296E+02    5.5306608E+05   -1.0733740E+04   -1.0255705E+04    5.5306607E+05    1.0255705E+04    5.5354411E+05
   -3.49   900.000    1.285E+02    5.5102119E+05   -1.0817330E+04   -1.0335236E+04    5.5102118E+05    1.0335236E+04    5.5150328E+05
   -3.48   900.000    1.274E+02    5.4935836E+05   -1.0929243E+04   -1.0439734E+04    5.4935835E+05    1.0439734E+04    5.4984786E+05
   -3.47   900.000    1.264E+02    5.4812430E+05   -1.1069893E+04   -1.0569655E+04    5.4812429E+05    1.0569656E+04    5.4862453E+05
   -3.46   900.000    1.253E+02    5.4735150E+05   -1.1238904E+04   -1.0724707E+04    5.4735150E+05    1.0724708E+04    5.4786570E+05
   -3.45   900.000    1.243E+02    5.4705944E+05   -1.1435095E+04   -1.0903827E+04    5.4705943E+05    1.0903827E+04    5.4759070E+05
   -3.44   900.000    1.233E+02    5.4725656E+05   -1.1656481E+04   -1.1105181E+04    5.4725656E+05    1.1105181E+04    5.4780786E+05
   -3.43   900.000    1.222E+02    5.4794294E+05   -1.1900279E+04   -1.1326174E+04    5.4794294E+05    1.1326175E+04    5.4851704E+05
   -3.42   900.000    1.212E+02    5.4911317E+05   -1.2162922E+04   -1.1563468E+04    5.4911317E+05    1.1563468E+04    5.4971262E+05
   -3.41   900.000    1.202E+02    5.5075930E+05   -1.2440092E+04   -1.1813006E+04    5.5075929E+05    1.1813006E+04    5.5138638E+05
   -3.40   900.000    1.192E+02    5.5287340E+05   -1.2726751E+04   -1.2070060E+04    5.5287339E+05    1.2070060E+04    5.5353008E+05
   -3.39   900.000    1.181E+02    5.5544959E+05   -1.3017205E+04   -1.2329284E+04    5.5544959E+05    1.2329284E+04    5.5613751E+05
   -3.38   900.000    1.171E+02    5.5848538E+05   -1.3305180E+04   -1.2584800E+04    5.5848537E+05    1.2584799E+04    5.5920575E+05
   -3.37   900.000    1.161E+02    5.6198214E+05   -1.3583947E+04   -1.2830312E+04    5.6198213E+05    1.2830311E+04    5.6273577E+05
   -3.36   900.000    1.150E+02    5.6594495E+05   -1.3846476E+04   -1.3059258E+04    5.6594494E+05    1.3059257E+04    5.6673216E+05
   -3.35   900.000    1.140E+02    5.7038181E+05   -1.4085650E+04   -1.3265016E+04    5.7038180E+05    1.3265015E+04    5.7120243E+05
   -3.34   900.000    1.129E+02    5.7530249E+05   -1.4294524E+04   -1.3441144E+04    5.7530248E+05    1.3441143E+04    5.7615586E+05
   -3.33   900.000    1.119E+02    5.8071719E+05   -1.4466626E+04   -1.3581677E+04    5.8071718E+05    1.3581675E+04    5.8160213E+05
   -3.32   900.000    1.108E+02    5.8663528E+05   -1.4596289E+04   -1.3681431E+04    5.8663527E+05    1.3681429E+04    5.8755012E+05
   -3.31   900.000    1.098E+02    5.9306410E+05   -1.4678985E+04   -1.3736329E+04    5.9306409E+05    1.3736327E+04    5.9400675E+05
   -3.30   900.000    1.087E+02    6.0000816E+05   -1.4711631E+04   -1.3743693E+04    6.0000815E+05    1.3743691E+04    6.0097609E+05
   -3.29   900.000    1.076E+02    6.0746843E+05   -1.4692845E+04   -1.3702478E+04    6.0746842E+05    1.3702476E+04    6.0845879E+05
   -3.28   900.000    1.066E+02    6.1544194E+05   -1.4623100E+04   -1.3613430E+04    6.1544192E+05    1.3613427E+04    6.1645159E+05
   -3.27   900.000    1.055E+02    6.2392135E+05   -1.4504785E+04   -1.3479126E+04    6.2392133E+05    1.3479124E+04    6.2494699E+05
   -3.26   900.000    1.044E+02    6.3289459E+05   -1.4342129E+04   -1.3303910E+04    6.3289458E+05    1.3303907E+04    6.3393280E+05
   -3.25   900.000    1.033E+02    6.4234430E+05   -1.4141016E+04   -1.3093695E+04    6.4234429E+05    1.3093692E+04    6.4339161E+05
   -3.24   900.000    1.022E+02    6.5224707E+05   -1.3908688E+04   -1.2855680E+04    6.5224705E+05    1.2855676E+04    6.5330006E+05
   -3.23   900.000    1.011E+02    6.6257253E+05   -1.3653374E+04   -1.2597978E+04    6.6257252E+05    1.2597974E+04    6.6362791E+05
   -3.22   900.000    9.998E+01    6.7328236E+05   -1.3383869E+04   -1.2329212E+04    6.7328235E+05    1.2329207E+04    6.7433700E+05
   -3.21   900.000    9.886E+01    6.8432922E+05   -1.3109109E+04   -1.2058092E+04    6.8432921E+05    1.2058087E+04    6.8538023E+05
   -3.20   900.000    9.773E+01    6.9565600E+05   -1.2837765E+04   -1.1793031E+04    6.9565598E+05    1.1793026E+04    6.9670072E+05
   -3.19   900.000    9.659E+01    7.0719530E+05   -1.2577897E+04   -1.1541810E+04    7.0719529E+05    1.1541805E+04    7.0823137E+05
   -3.18   900.000    9.544E+01    7.1886958E+05   -1.2336685E+04   -1.1311315E+04    7.1886957E+05    1.1311310E+04    7.1989494E+05
   -3.17   900.000    9.428E+01    7.3059183E+05   -1.2120239E+04   -1.1107368E+04    7.3059182E+05    1.1107362E+04    7.3160469E+05
   -3.16   900.000    9.311E+01    7.4226695E+05   -1.1933513E+04   -1.0934641E+04    7.4226694E+05    1.0934635E+04    7.4326581E+05
   -3.15   900.000    9.193E+01    7.5379382E+05   -1.1780292E+04   -1.0796662E+04    7.5379380E+05    1.0796656E+04    7.5477744E+05
   -3.14   900.000    9.073E+01    7.6506778E+05   -1.1663267E+04   -1.0695876E+04    7.6506777E+05    1.0695870E+04    7.6603516E+05
   -3.13   900.000    8.952E+01    7.7598358E+05   -1.1584147E+04   -1.0633777E+04    7.7598357E+05    1.0633770E+04    7.7693394E+05
   -3.12   900.000    8.829E+01    7.8643838E+05   -1.1543827E+04   -1.0611054E+04    7.8643837E+05    1.0611047E+04    7.8737114E+05
   -3.11   900.000    8.704E+01    7.9633462E+05   -1.1542546E+04   -1.0627762E+04    7.9633461E+05    1.0627755E+04    7.9724940E+05
   -3.10   900.000    8.577E+01    8.0558269E+05   -1.1580044E+04   -1.0683463E+04    8.0558268E+05    1.0683456E+04    8.0647926E+05
   -3.09   900.000    8.447E+01    8.1410297E+05   -1.1655683E+04   -1.0777348E+04    8.1410296E+05    1.0777340E+04    8.1498130E+05
   -3.08   900.000    8.316E+01    8.2182744E+05   -1.1768524E+04   -1.0908303E+04    8.2182743E+05    1.0908296E+04    8.2268765E+05
   -3.07   900.000    8.182E+01    8.2870054E+05   -1.1917347E+04   -1.1074938E+04    8.2870053E+05    1.1074931E+04    8.2954294E+05
   -3.06   900.000    8.045E+01    8.3467952E+05   -1.2100626E+04   -1.1275556E+04    8.3467951E+05    1.1275549E+04    8.3550458E+05
   -3.05   900.000    7.905E+01    8.3973426E+05   -1.2316471E+04   -1.1508097E+04    8.3973425E+05    1.1508090E+04    8.4054263E+05
   -3.04   900.000    7.762E+01    8.4384667E+05   -1.2562542E+04   -1.1770063E+04    8.4384666E+05    1.1770056E+04    8.4463914E+05
   -3.03   900.000    7.616E+01    8.4700984E+05   -1.2835980E+04   -1.2058451E+04    8.4700983E+05    1.2058444E+04    8.4778736E+05
   -3.02   900.000    7.467E+01    8.4922709E+05   -1.3133356E+04   -1.2369713E+04    8.4922708E+05    1.2369706E+04    8.4999073E+05
   -3.01   900.000    7.314E+01    8.5051091E+05   -1.3450669E+04   -1.2699760E+04    8.5051090E+05    1.2699754E+04    8.5126181E+05
   -3.00   900.000    7.158E+01    8.5088197E+05   -1.3783395E+04   -1.3044019E+04    8.5088196E+05    1.3044013E+04    8.5162134E+05
   -2.99   900.000    6.999E+01    8.5036817E+05   -1.4126597E+04   -1.3397546E+04    8.5036817E+05    1.3397539E+04    8.5109722E+05
   -2.98   900.000    6.837E+01    8.4900376E+05   -1.4475082E+04   -1.3755179E+04    8.4900376E+05    1.3755173E+04    8.4972366E+05
   -2.97   900.000    6.672E+01    8.4682848E+05   -1.4823581E+04   -1.4111730E+04    8.4682847E+05    1.4111724E+04    8.4754033E+05
   -2.96   900.000    6.504E+01    8.4388669E+05   -1.5166952E+04   -1.4462166E+04    8.4388669E+05    1.4462160E+04    8.4459147E+05
   -2.95   900.000    6.333E+01    8.4022649E+05   -1.5500356E+04   -1.4801787E+04    8.4022648E+05    1.4801781E+04    8.4092505E+05
   -2.94   900.000    6.160E+01    8.3589867E+05   -1.5819399E+04   -1.5126356E+04    8.3589867E+05    1.5126350E+04    8.3659171E+05
   -2.93   900.000    5.984E+01    8.3095571E+05   -1.6120220E+04   -1.5432175E+04    8.3095570E+05    1.5432169E+04    8.3164374E+05
   -2.92   900.000    5.807E+01    8.2545048E+05   -1.6399518E+04   -1.5716101E+04    8.2545047E+05    1.5716096E+04    8.2613388E+05
   -2.91   900.000    5.629E+01    8.1943502E+05   -1.6654516E+04   -1.5975498E+04    8.1943501E+05    1.5975493E+04    8.2011403E+05
   -2.90   900.000    5.450E+01    8.1295921E+05   -1.6882870E+04   -1.6208139E+04    8.1295920E+05    1.6208134E+04    8.1363393E+05
   -2.89   900.000    5.271E+01    8.0606939E+05   -1.7082546E+04   -1.6412079E+04    8.0606938E+05    1.6412074E+04    8.0673985E+05
   -2.88   900.000    5.092E+01    7.9880719E+05   -1.7251687E+04   -1.6585512E+04    7.9880718E+05    1.6585507E+04    7.9947336E+05
   -2.87   900.000    4.914E+01    7.9120834E+05   -1.7388481E+04   -1.6726642E+04    7.9120833E+05    1.6726637E+04    7.9187017E+05
   -2.86   900.000    4.738E+01    7.8330183E+05   -1.7491060E+04   -1.6833587E+04    7.8330182E+05    1.6833582E+04    7.8395930E+05
   -2.85   900.000    4.563E+01    7.7510931E+05   -1.7557448E+04   -1.6904324E+04    7.7510930E+05    1.6904320E+04    7.7576243E+05
   -2.84   900.000    4.391E+01    7.6664475E+05   -1.7585555E+04   -1.6936693E+04    7.6664474E+05    1.6936688E+04    7.6729360E+05
   -2.83   900.000    4.222E+01    7.5791449E+05   -1.7573231E+04   -1.6928453E+04    7.5791448E+05    1.6928449E+04    7.5855925E+05
   -2.82   900.000    4.056E+01    7.4891755E+05   -1.7518377E+04   -1.6877403E+04    7.4891754E+05    1.6877398E+04    7.4955852E+05
   -2.81   900.000    3.894E+01    7.3964629E+05   -1.7419103E+04   -1.6781539E+04    7.3964628E+05    1.6781535E+04    7.4028385E+05
   -2.80   900.000    3.736E+01    7.3008719E+05   -1.7273919E+04   -1.6639258E+04    7.3008717E+05    1.6639253E+04    7.3072184E+05
   -2.79   900.000    3.583E+01    7.2022187E+05   -1.7081946E+04   -1.6449566E+04    7.2022186E+05    1.6449562E+04    7.2085424E+05
   -2.78   900.000    3.435E+01    7.1002832E+05   -1.6843127E+04   -1.6212302E+04    7.1002831E+05    1.6212298E+04    7.1065913E+05
   -2.77   900.000    3.292E+01    6.9948213E+05   -1.6558416E+04   -1.5928319E+04    6.9948212E+05    1.5928316E+04    7.0011221E+05
   -2.76   900.000    3.154E+01    6.8855795E+05   -1.6229916E+04   -1.5599638E+04    6.8855794E+05    1.5599634E+04    6.8918822E+05
   -2.75   900.000    3.022E+01    6.7723105E+05   -1.5860956E+04   -1.5229517E+04    6.7723104E+05    1.5229514E+04    6.7786248E+05
   -2.74   900.000    2.895E+01    6.6547903E+05   -1.5456084E+04   -1.4822458E+04    6.6547902E+05    1.4822455E+04    6.6611264E+05
   -2.73   900.000    2.774E+01    6.5328356E+05   -1.5020970E+04   -1.4384107E+04    6.5328355E+05    1.4384104E+04    6.5392041E+05
   -2.72   900.000    2.658E+01    6.4063232E+05   -1.4562224E+04   -1.3921074E+04    6.4063231E+05    1.3921071E+04    6.4127346E+05
   -2.71   900.000    2.547E+01    6.2752087E+05   -1.4087130E+04   -1.3440677E+04    6.2752086E+05    1.3440674E+04    6.2816731E+05
   -2.70   900.000    2.441E+01    6.1395439E+05   -1.3603332E+04   -1.2950625E+04    6.1395438E+05    1.2950623E+04    6.1460709E+05
   -2.69   900.000    2.340E+01    5.9994930E+05   -1.3118479E+04   -1.2458675E+04    5.9994929E+05    1.2458673E+04    6.0060910E+05
   -2.68   900.000    2.245E+01    5.8553440E+05   -1.2639888E+04   -1.1972283E+04    5.8553439E+05    1.1972282E+04    5.8620200E+05
   -2.67   900.000    2.154E+01    5.7075160E+05   -1.2174227E+04   -1.1498300E+04    5.7075159E+05    1.1498299E+04    5.7142752E+05
   -2.66   900.000    2.067E+01    5.5565597E+05   -1.1727266E+04   -1.1042713E+04    5.5565596E+05    1.1042712E+04    5.5634051E+05
   -2.65   900.000    1.984E+01    5.4031515E+05   -1.1303705E+04   -1.0610467E+04    5.4031514E+05    1.0610466E+04    5.4100838E+05
   -2.64   900.000    1.906E+01    5.2480796E+05   -1.0907083E+04   -1.0205369E+04    5.2480795E+05    1.0205368E+04    5.2550966E+05
   -2.63   900.000    1.831E+01    5.0922235E+05   -1.0539776E+04   -9.8300677E+03    5.0922235E+05    9.8300672E+03    5.0993205E+05
   -2.62   900.000    1.760E+01    4.9365274E+05   -1.0203050E+04   -9.4860959E+03    4.9365273E+05    9.4860956E+03    4.9436969E+05
   -2.61   900.000    1.693E+01    4.7819683E+05   -9.8971739E+03   -9.1739577E+03    4.7819682E+05    9.1739576E+03    4.7892004E+05
   -2.60   900.000    1.628E+01    4.6295220E+05   -9.6215365E+03   -8.8932348E+03    4.6295219E+05    8.8932348E+03    4.6368049E+05
   -2.59   900.000    1.566E+01    4.4801277E+05   -9.3747710E+03   -8.6426903E+03    4.4801276E+05    8.6426906E+03    4.4874484E+05
   -2.58   900.000    1.508E+01    4.3346543E+05   -9.1548534E+03   -8.4203562E+03    4.3346542E+05    8.4203567E+03    4.3419992E+05
   -2.57   900.000    1.451E+01    4.1938698E+05   -8.9591701E+03   -8.2235935E+03    4.1938698E+05    8.2235941E+03    4.2012255E+05
   -2.56   900.000    1.398E+01    4.0584152E+05   -8.7845530E+03   -8.0491269E+03    4.0584152E+05    8.0491276E+03    4.0657694E+05
   -2.55   900.000    1.346E+01    3.9287844E+05   -8.6272899E+03   -7.8930628E+03    3.9287844E+05    7.8930636E+03    3.9361266E+05
   -2.54   900.000    1.297E+01    3.8053103E+05   -8.4831252E+03   -7.7509033E+03    3.8053102E+05    7.7509043E+03    3.8126325E+05
   -2.53   900.000    1.250E+01    3.6881569E+05   -8.3472698E+03   -7.6175765E+03    3.6881568E+05    7.6175776E+03    3.6954538E+05
   -2.52   900.000    1.204E+01    3.5773176E+05   -8.2144398E+03   -7.4874973E+03    3.5773176E+05    7.4874986E+03    3.5845870E+05
   -2.51   900.000    1.161E+01    3.4726184E+05   -8.0789395E+03   -7.3546773E+03    3.4726183E+05    7.3546787E+03    3.4798610E+05
   -2.50   900.000    1.119E+01    3.3737254E+05   -7.9348017E+03   -7.2128887E+03    3.3737253E+05    7.2128901E+03    3.3809445E+05
   -2.49   900.000    1.079E+01    3.2801569E+05   -7.7759880E+03   -7.0558868E+03    3.2801568E+05    7.0558884E+03    3.2873578E+05
   -2.48   900.000    1.040E+01    3.1912983E+05   -7.5966443E+03   -6.8776844E+03    3.1912982E+05    6.8776860E+03    3.1984878E+05
   -2.47   900.000    1.003E+01    3.1064215E+05   -7.3914005E+03   -6.6728621E+03    3.1064214E+05    6.6728638E+03    3.1136068E+05
   -2.46   900.000    9.673E+00    3.0247073E+05   -7.1556910E+03   -6.4368961E+03    3.0247072E+05    6.4368978E+03    3.0318952E+05
   -2.45   900.000    9.331E+00    2.9452717E+05   -6.8860724E+03   -6.1664746E+03    2.9452716E+05    6.1664764E+03    2.9524676E+05
   -2.44   900.000    9.002E+00    2.8671957E+05   -6.5805060E+03   -5.8597743E+03    2.8671956E+05    5.8597761E+03    2.8744030E+05
   -2.43   900.000    8.687E+00    2.7895588E+05   -6.2385771E+03   -5.5166672E+03    2.7895587E+05    5.5166690E+03    2.7967778E+05
   -2.42   900.000    8.384E+00    2.7114734E+05   -5.8616214E+03   -5.1388320E+03    2.7114733E+05    5.1388337E+03    2.7187012E+05
   -2.41   900.000    8.094E+00    2.6321214E+05   -5.4527431E+03   -4.7297516E+03    2.6321213E+05    4.7297533E+03    2.6393512E+05
   -2.40   900.000    7.816E+00    2.5507880E+05   -5.0167104E+03   -4.2945892E+03    2.5507879E+05    4.2945908E+03    2.5580091E+05
   -2.39   900.000    7.550E+00    2.4668935E+05   -4.5597366E+03   -3.8399475E+03    2.4668934E+05    3.8399490E+03    2.4740913E+05
   -2.38   900.000    7.295E+00    2.3800186E+05   -4.0891589E+03   -3.3735271E+03    2.3800184E+05    3.3735285E+03    2.3871747E+05
   -2.37   900.000    7.053E+00    2.2899229E+05   -3.6130431E+03   -2.9037128E+03    2.2899227E+05    2.9037142E+03    2.2970160E+05
   -2.36   900.000    6.822E+00    2.1965551E+05   -3.1397472E+03   -2.4391216E+03    2.1965550E+05    2.4391229E+03    2.2035612E+05
   -2.35   900.000    6.602E+00    2.1000534E+05   -2.6774809E+03   -1.9881491E+03    2.1000532E+05    1.9881502E+03    2.1069466E+05
   -2.34   900.000    6.394E+00    2.0007364E+05   -2.2338957E+03   -1.5585508E+03    2.0007363E+05    1.5585518E+03    2.0074897E+05
   -2.33   900.000    6.197E+00    1.8990858E+05   -1.8157349E+03   -1.1570880E+03    1.8990857E+05    1.1570890E+03    1.9056722E+05
   -2.32   900.000    6.010E+00    1.7957214E+05   -1.4285668E+03   -7.8925943E+02    1.7957213E+05    7.8926027E+02    1.8021144E+05
   -2.31   900.000    5.835E+00    1.6913696E+05   -1.0766111E+03   -4.5913146E+02    1.6913695E+05    4.5913220E+02    1.6975443E+05
   -2.30   900.000    5.670E+00    1.5868297E+05   -7.6266353E+02   -1.6926997E+02    1.5868296E+05    1.6927062E+02    1.5927636E+05
   -2.29   900.000    5.516E+00    1.4829373E+05   -4.8811202E+02    7.9232804E+01    1.4829372E+05   -7.9232234E+01    1.4886106E+05
   -2.28   900.000    5.372E+00    1.3805293E+05   -2.5303254E+02    2.8664903E+02    1.3805292E+05   -2.8664853E+02    1.3859260E+05
   -2.27   900.000    5.237E+00    1.2804118E+05   -5.6346919E+01    4.5444177E+02    1.2804118E+05   -4.5444135E+02    1.2855196E+05
   -2.26   900.000    5.112E+00    1.1833323E+05    1.0397656E+02    5.8504808E+02    1.1833323E+05   -5.8504771E+02    1.1881430E+05
   -2.25   900.000    4.996E+00    1.0899575E+05    2.3070033E+02    6.8163964E+02    1.0899574E+05   -6.8163932E+02    1.0944668E+05
   -2.24   900.000    4.889E+00    1.0008577E+05    3.2709082E+02    7.4788087E+02    1.0008577E+05   -7.4788060E+02    1.0050656E+05
   -2.23   900.000    4.790E+00    9.1649795E+04    3.9670365E+02    7.8770083E+02    9.1649789E+04   -7.8770060E+02    9.2040786E+04
   -2.22   900.000    4.698E+00    8.3723469E+04    4.4319248E+02    8.0509153E+02    8.3723464E+04   -8.0509133E+02    8.4085363E+04
   -2.21   900.000    4.613E+00    7.6331864E+04    4.7014932E+02    8.0394057E+02    7.6331859E+04   -8.0394041E+02    7.6665650E+04
   -2.20   900.000    4.534E+00    6.9490154E+04    4.8097971E+02    7.8790205E+02    6.9490149E+04   -7.8790191E+02    6.9797072E+04
   -2.19   900.000    4.461E+00    6.3204655E+04    4.7881328E+02    7.6030548E+02    6.3204652E+04   -7.6030536E+02    6.3486144E+04
   -2.18   900.000    4.394E+00    5.7474079E+04    4.6644695E+02    7.2410003E+02    5.7474075E+04   -7.2409993E+02    5.7731728E+04
   -2.17   900.000    4.330E+00    5.2290899E+04    4.4631661E+02    6.8182927E+02    5.2290896E+04   -6.8182917E+02    5.2526408E+04
   -2.16   900.000    4.271E+00    4.7642754E+04    4.2049188E+02    6.3563041E+02    4.7642752E+04   -6.3563033E+02    4.7857890E+04
   -2.15   900.000    4.215E+00    4.3513804E+04    3.9068860E+02    5.8725219E+02    4.3513802E+04   -5.8725211E+02    4.3710366E+04
   -2.14   900.000    4.162E+00    3.9885984E+04    3.5829347E+02    5.3808535E+02    3.9885982E+04   -5.3808528E+02    4.0065774E+04
   -2.13   900.000    4.111E+00    3.6740135E+04    3.2439662E+02    4.8920093E+02    3.6740133E+04   -4.8920087E+02    3.6904938E+04
   -2.12   900.000    4.061E+00    3.4056979E+04    2.8982785E+02    4.4139209E+02    3.4056978E+04   -4.4139204E+02    3.4208542E+04
   -2.11   900.000    4.012E+00    3.1817941E+04    2.5519406E+02    3.9521635E+02    3.1817941E+04   -3.9521629E+02    3.1957963E+04
   -2.10   900.000    3.963E+00    3.0005811E+04    2.2091546E+02    3.5103603E+02    3.0005810E+04   -3.5103598E+02    3.0135931E+04
   -2.09   900.000    3.914E+00    2.8605261E+04    1.8725937E+02    3.0905552E+02    2.8605261E+04   -3.0905546E+02    2.8727057E+04
   -2.08   900.000    3.863E+00    2.7603235E+04    1.5437081E+02    2.6935442E+02    2.7603235E+04   -2.6935436E+02    2.7718219E+04
   -2.07   900.000    3.812E+00    2.6989209E+04    1.2229961E+02    2.3191653E+02    2.6989209E+04   -2.3191646E+02    2.7098826E+04
   -2.06   900.000    3.758E+00    2.6755351E+04    9.1023958E+01    1.9665444E+02    2.6755352E+04   -1.9665437E+02    2.6860982E+04
   -2.05   900.000    3.701E+00    2.6896593E+04    6.0470830E+01    1.6343029E+02    2.6896594E+04   -1.6343022E+02    2.6999553E+04
   -2.04   900.000    3.641E+00    2.7410617E+04    3.0533421E+01    1.3207299E+02    2.7410618E+04   -1.3207291E+02    2.7512158E+04
   -2.03   900.000    3.578E+00    2.8297785E+04    1.0861419E+00    1.0239230E+02    2.8297787E+04   -1.0239221E+02    2.8399093E+04
   -2.02   900.000    3.509E+00    2.9561018E+04   -2.8002515E+01    7.4190446E+01    2.9561020E+04   -7.4190339E+01    2.9663213E+04
   -2.01   900.000    3.437E+00    3.1205628E+04   -5.6858895E+01    4.7271511E+01    3.1205631E+04   -4.7271390E+01    3.1309761E+04
   -2.00   900.000    3.359E+00    3.3239144E+04   -8.5594668E+01    2.1449110E+01    3.3239147E+04   -2.1448973E+01    3.3346190E+04
   -1.99   900.000    3.275E+00    3.5671121E+04   -1.1429874E+02   -3.4474692E+00    3.5671124E+04    3.4476250E+00    3.5781975E+04
   -1.98   900.000    3.185E+00    3.8512968E+04   -1.4303057E+02   -2.7568379E+01    3.8512971E+04    2.7568556E+01    3.8628434E+04
   -1.97   900.000    3.089E+00    4.1777811E+04   -1.7181504E+02   -5.1039486E+01    4.1777815E+04    5.1039687E+01    4.1898590E+04
   -1.96   900.000    2.987E+00    4.5480399E+04   -2.0063894E+02   -7.3959744E+01    4.5480403E+04    7.3959971E+01    4.5607082E+04
   -1.95   900.000    2.879E+00    4.9637088E+04   -2.2944940E+02   -9.6399638E+01    4.9637093E+04    9.6399894E+01    4.9770143E+04
   -1.94   900.000    2.764E+00    5.4265895E+04   -2.5815442E+02   -1.1840073E+02    5.4265900E+04    1.1840101E+02    5.4405654E+04
   -1.93   900.000    2.642E+00    5.9386637E+04   -2.8662565E+02   -1.3997627E+02    5.9386642E+04    1.3997659E+02    5.9533292E+04
   -1.92   900.000    2.515E+00    6.5021147E+04   -3.1470352E+02   -1.6111290E+02    6.5021153E+04    1.6111326E+02    6.5174744E+04
   -1.91   900.000    2.382E+00    7.1193544E+04   -3.4220449E+02   -1.8177327E+02    7.1193551E+04    1.8177367E+02    7.1353982E+04
   -1.90   900.000    2.244E+00    7.7930526E+04   -3.6893010E+02   -2.0189945E+02    7.7930533E+04    2.0189989E+02    7.8097563E+04
   -1.89   900.000    2.102E+00    8.5261650E+04   -3.9467730E+02   -2.2141685E+02    8.5261657E+04    2.2141733E+02    8.5434918E+04
   -1.88   900.000    1.955E+00    9.3219548E+04   -4.1924919E+02   -2.4023834E+02    9.3219555E+04    2.4023885E+02    9.3398566E+04
   -1.87   900.000    1.805E+00    1.0184002E+05   -4.4246527E+02   -2.5826811E+02    1.0184002E+05    2.5826867E+02    1.0202422E+05
   -1.86   900.000    1.652E+00    1.1116195E+05   -4.6417038E+02   -2.7540500E+02    1.1116196E+05    2.7540560E+02    1.1135073E+05
   -1.85   900.000    1.497E+00    1.2122707E+05   -4.8424123E+02   -2.9154477E+02    1.2122708E+05    2.9154541E+02    1.2141978E+05
   -1.84   900.000    1.341E+00    1.3207942E+05   -5.0258995E+02   -3.0658108E+02    1.3207943E+05    3.0658176E+02    1.3227544E+05
   -1.83   900.000    1.184E+00    1.4376461E+05   -5.1916425E+02   -3.2040506E+02    1.4376462E+05    3.2040578E+02    1.4396338E+05
   -1.82   900.000    1.027E+00    1.5632892E+05   -5.3394412E+02   -3.3290333E+02    1.5632893E+05    3.3290410E+02    1.5652997E+05
   -1.81   900.000    8.698E-01    1.6981814E+05   -5.4693539E+02   -3.4395477E+02    1.6981815E+05    3.4395558E+02    1.7002113E+05
   -1.80   900.000    7.136E-01    1.8427636E+05   -5.5816101E+02   -3.5342624E+02    1.8427637E+05    3.5342711E+02    1.8448111E+05
   -1.79   900.000    5.586E-01    1.9974471E+05   -5.6765089E+02   -3.6116806E+02    1.9974473E+05    3.6116898E+02    1.9995121E+05
   -1.78   900.000    4.050E-01    2.1626013E+05   -5.7543170E+02   -3.6700960E+02    2.1626014E+05    3.6701060E+02    2.1646856E+05
   -1.77   900.000    2.530E-01    2.3385421E+05   -5.8151783E+02   -3.7075613E+02    2.3385422E+05    3.7075723E+02    2.3406498E+05
   -1.76   900.000    1.026E-01    2.5255230E+05   -5.8590472E+02   -3.7218747E+02    2.5255231E+05    3.7218869E+02    2.5276603E+05
   -1.75   900.000   -4.604E-02    2.7237271E+05   -5.8856590E+02   -3.7105959E+02    2.7237272E+05    3.7106096E+02    2.7259023E+05
   -1.74   900.000   -1.931E-01    2.9332615E+05   -5.8945458E+02   -3.6710977E+02    2.9332617E+05    3.6711132E+02    2.9354851E+05
   -1.73   900.000   -3.386E-01    3.1541541E+05   -5.8851073E+02   -3.6006629E+02    3.1541543E+05    3.6006807E+02    3.1564387E+05
   -1.72   900.000   -4.827E-01    3.3863507E+05   -5.8567413E+02   -3.4966319E+02    3.3863509E+05    3.4966525E+02    3.3887110E+05
   -1.71   900.000   -6.256E-01    3.6297139E+05   -5.8090381E+02   -3.3566048E+02    3.6297140E+05    3.3566286E+02    3.6321665E+05
   -1.70   900.000   -7.676E-01    3.8840216E+05   -5.7420363E+02   -3.1786985E+02    3.8840218E+05    3.1787262E+02    3.8865851E+05
   -1.69   900.000   -9.089E-01    4.1489659E+05   -5.6565346E+02   -2.9618554E+02    4.1489661E+05    2.9618874E+02    4.1516608E+05
   -1.68   900.000   -1.050E+00    4.4241513E+05   -5.5544456E+02   -2.7061900E+02    4.4241515E+05    2.7062270E+02    4.4269997E+05
   -1.67   900.000   -1.190E+00    4.7090926E+05   -5.4391717E+02   -2.4133576E+02    4.7090928E+05    2.4134002E+02    4.7121186E+05
   -1.66   900.000   -1.331E+00    5.0032142E+05   -5.3159730E+02   -2.0869179E+02    5.0032144E+05    2.0869665E+02    5.0064434E+05
   -1.65   900.000   -1.472E+00    5.3058496E+05   -5.1922913E+02   -1.7326606E+02    5.3058498E+05    1.7327158E+02    5.3093095E+05
   -1.64   900.000   -1.614E+00    5.6162436E+05   -5.0779882E+02   -1.3588554E+02    5.6162438E+05    1.3589175E+02    5.6199629E+05
   -1.63   900.000   -1.757E+00    5.9335561E+05   -4.9854545E+02   -9.7638664E+01    5.9335564E+05    9.7645598E+01    5.9375654E+05
   -1.62   900.000   -1.900E+00    6.2568700E+05   -4.9295488E+02   -5.9873542E+01    6.2568703E+05    5.9881211E+01    6.2612011E+05
   -1.61   900.000   -2.045E+00    6.5852001E+05   -4.9273342E+02   -2.4177762E+01    6.5852004E+05    2.4186163E+01    6.5898859E+05
   -1.60   900.000   -2.191E+00    6.9175042E+05   -4.9975938E+02    7.6619178E+00    6.9175045E+05   -7.6528051E+00    6.9225787E+05
   -1.59   900.000   -2.339E+00    7.2526952E+05   -5.1601260E+02    3.3720250E+01    7.2526955E+05   -3.3710466E+01    7.2581928E+05
   -1.58   900.000   -2.489E+00    7.5896518E+05   -5.4348427E+02    5.2012682E+01    7.5896521E+05   -5.2002287E+01    7.5956070E+05
   -1.57   900.000   -2.641E+00    7.9272283E+05   -5.8407198E+02    6.0589004E+01    7.9272286E+05   -6.0578075E+01    7.9336752E+05
   -1.56   900.000   -2.795E+00    8.2642629E+05   -6.3946701E+02    5.7635356E+01    8.2642633E+05   -5.7623991E+01    8.2712343E+05
   -1.55   900.000   -2.950E+00    8.5995843E+05   -7.1104276E+02    4.1576913E+01    8.5995846E+05   -4.1565225E+01    8.6071108E+05
   -1.54   900.000   -3.108E+00    8.9320180E+05   -7.9975400E+02    1.1172793E+01    8.9320183E+05   -1.1160907E+01    8.9401276E+05
   -1.53   900.000   -3.269E+00    9.2603950E+05   -9.0605609E+02   -3.4404895E+01    9.2603954E+05    3.4416844E+01    9.2691119E+05
   -1.52   900.000   -3.432E+00    9.5835635E+05   -1.0298514E+03   -9.5514332E+01    9.5835638E+05    9.5526203E+01    9.5929072E+05
   -1.51   900.000   -3.597E+00    9.9004054E+05   -1.1704671E+03   -1.7201352E+02    9.9004058E+05    1.7202517E+02    9.9103903E+05
   -1.50   900.000   -3.765E+00    1.0209860E+06   -1.3266654E+03   -2.6325677E+02    1.0209861E+06    2.6326807E+02    1.0220495E+06
   -1.49   900.000   -3.935E+00    1.0510954E+06   -1.4966828E+03   -3.6811590E+02    1.0510954E+06    3.6812671E+02    1.0522240E+06
   -1.48   900.000   -4.108E+00    1.0802834E+06   -1.6782920E+03   -4.8502120E+02    1.0802835E+06    4.8503141E+02    1.0814767E+06
   -1.47   900.000   -4.284E+00    1.1084807E+06   -1.8688802E+03   -6.1201617E+02    1.1084808E+06    6.1202568E+02    1.1097376E+06
   -1.46   900.000   -4.462E+00    1.1356374E+06   -2.0655346E+03   -7.4681932E+02    1.1356374E+06    7.4682804E+02    1.1369561E+06
   -1.45   900.000   -4.643E+00    1.1617263E+06   -2.2651276E+03   -8.8688683E+02    1.1617263E+06    8.8689473E+02    1.1631045E+06
   -1.44   900.000   -4.827E+00    1.1867456E+06   -2.4643955E+03   -1.0294707E+03    1.1867457E+06    1.0294777E+03    1.1881806E+06
   -1.43   900.000   -5.013E+00    1.2107205E+06   -2.6600060E+03   -1.1716676E+03    1.2107205E+06    1.1716738E+03    1.2122089E+06
   -1.42   900.000   -5.202E+00    1.2337030E+06   -2.8486092E+03   -1.3104548E+03    1.2337030E+06    1.3104601E+03    1.2352412E+06
   -1.41   900.000   -5.393E+00    1.2557716E+06   -3.0268706E+03   -1.4427112E+03    1.2557716E+06    1.4427158E+03    1.2573558E+06
   -1.40   900.000   -5.588E+00    1.2770292E+06   -3.1914848E+03   -1.5652226E+03    1.2770292E+06    1.5652265E+03    1.2786555E+06
   -1.39   900.000   -5.785E+00    1.2976007E+06   -3.3391724E+03   -1.6746744E+03    1.2976007E+06    1.6746778E+03    1.2992652E+06
   -1.38   900.000   -5.984E+00    1.3176295E+06   -3.4666643E+03   -1.7676381E+03    1.3176295E+06    1.7676411E+03    1.3193286E+06
   -1.37   900.000   -6.187E+00    1.3372742E+06   -3.5706831E+03   -1.8405599E+03    1.3372742E+06    1.8405626E+03    1.3390044E+06
   -1.36   900.000   -6.392E+00    1.3567052E+06   -3.6479305E+03   -1.8897656E+03    1.3567053E+06    1.8897682E+03    1.3584634E+06
   -1.35   900.000   -6.600E+00    1.3761014E+06   -3.6950954E+03   -1.9114926E+03    1.3761014E+06    1.9114953E+03    1.3778850E+06
   -1.34   900.000   -6.810E+00    1.3956464E+06   -3.7088922E+03   -1.9019600E+03    1.3956464E+06    1.9019630E+03    1.3974534E+06
   -1.33   900.000   -7.024E+00    1.4155262E+06   -3.6861372E+03   -1.8574822E+03    1.4155262E+06    1.8574856E+03    1.4173548E+06
   -1.32   900.000   -7.240E+00    1.4359250E+06   -3.6238664E+03   -1.7746264E+03    1.4359251E+06    1.7746304E+03    1.4377743E+06
   -1.31   900.000   -7.459E+00    1.4570227E+06   -3.5194921E+03   -1.6504050E+03    1.4570228E+06    1.6504098E+03    1.4588919E+06
   -1.30   900.000   -7.680E+00    1.4789907E+06   -3.3709890E+03   -1.4824917E+03    1.4789907E+06    1.4824975E+03    1.4808792E+06
   -1.29   900.000   -7.905E+00    1.5019881E+06   -3.1770968E+03   -1.2694433E+03    1.5019882E+06    1.2694502E+03    1.5038958E+06
   -1.28   900.000   -8.132E+00    1.5261585E+06   -2.9375262E+03   -1.0109093E+03    1.5261585E+06    1.0109174E+03    1.5280851E+06
   -1.27   900.000   -8.362E+00    1.5516251E+06   -2.6531504E+03   -7.0781378E+02    1.5516251E+06    7.0782315E+02    1.5535704E+06
   -1.26   900.000   -8.594E+00    1.5784875E+06   -2.3261697E+03   -3.6249418E+02    1.5784875E+06    3.6250494E+02    1.5804512E+06
   -1.25   900.000   -8.830E+00    1.6068180E+06   -1.9602338E+03    2.1211614E+01    1.6068180E+06   -2.1199436E+01    1.6087995E+06
   -1.24   900.000   -9.067E+00    1.6366581E+06   -1.5605113E+03    4.3793816E+02    1.6366581E+06   -4.3792454E+02    1.6386566E+06
   -1.23   900.000   -9.308E+00    1.6680158E+06   -1.1336961E+03    8.8082849E+02    1.6680158E+06   -8.8081344E+02    1.6700304E+06
   -1.22   900.000   -9.551E+00    1.7008633E+06   -6.8794198E+02    1.3416356E+03    1.7008634E+06   -1.3416192E+03    1.7028929E+06
   -1.21   900.000   -9.797E+00    1.7351350E+06   -2.3272068E+02    1.8108894E+03    1.7351350E+06   -1.8108716E+03    1.7371786E+06
   -1.20   900.000   -1.005E+01    1.7707263E+06    2.2139926E+02    2.2781265E+03    1.7707264E+06   -2.2781076E+03    1.7727831E+06
   -1.19   900.000   -1.030E+01    1.8074936E+06    6.6304866E+02    2.7321795E+03    1.8074937E+06   -2.7321595E+03    1.8095628E+06
   -1.18   900.000   -1.055E+01    1.8452550E+06    1.0804207E+03    3.1615163E+03    1.8452550E+06   -3.1614954E+03    1.8473361E+06
   -1.17   900.000   -1.081E+01    1.8837924E+06    1.4616858E+03    3.5546200E+03    1.8837924E+06   -3.5545984E+03    1.8858853E+06
   -1.16   900.000   -1.107E+01    1.9228559E+06    1.7954379E+03    3.9003945E+03    1.9228559E+06   -3.9003724E+03    1.9249609E+06
   -1.15   900.000   -1.133E+01    1.9621700E+06    2.0711494E+03    4.1885783E+03    1.9621700E+06   -4.1885558E+03    1.9642875E+06
   -1.14   900.000   -1.160E+01    2.0014417E+06    2.2796083E+03    4.4101488E+03    2.0014417E+06   -4.4101261E+03    2.0035722E+06
   -1.13   900.000   -1.186E+01    2.0403711E+06    2.4133142E+03    4.5576988E+03    2.0403711E+06   -4.5576762E+03    2.0425155E+06
   -1.12   900.000   -1.213E+01    2.0786639E+06    2.4668113E+03    4.6257673E+03    2.0786639E+06   -4.6257449E+03    2.0808228E+06
   -1.11   900.000   -1.241E+01    2.1160446E+06    2.4369445E+03    4.6111114E+03    2.1160446E+06   -4.6110894E+03    2.1182188E+06
   -1.10   900.000   -1.269E+01    2.1522702E+06    2.3230271E+03    4.5129089E+03    2.1522702E+06   -4.5128875E+03    2.1544600E+06
   -1.09   900.000   -1.297E+01    2.1871425E+06    2.1269205E+03    4.3328846E+03    2.1871425E+06   -4.3328640E+03    2.1893484E+06
   -1.08   900.000   -1.325E+01    2.2205185E+06    1.8530256E+03    4.0753564E+03    2.2205185E+06   -4.0753367E+03    2.2227409E+06
   -1.07   900.000   -1.354E+01    2.2523174E+06    1.5081927E+03    3.7471993E+03    2.2523174E+06   -3.7471805E+03    2.2545564E+06
   -1.06   900.000   -1.382E+01    2.2825228E+06    1.1015558E+03    3.3577252E+03    2.2825228E+06   -3.3577076E+03    2.2847790E+06
   -1.05   900.000   -1.412E+01    2.3111810E+06    6.4429766E+02    2.9184782E+03    2.3111810E+06   -2.9184618E+03    2.3134552E+06
   -1.04   900.000   -1.441E+01    2.3383942E+06    1.4935078E+02    2.4429446E+03    2.3383942E+06   -2.4429295E+03    2.3406878E+06
   -1.03   900.000   -1.471E+01    2.3643095E+06   -3.6896116E+02    1.9461813E+03    2.3643095E+06   -1.9461675E+03    2.3666247E+06
   -1.02   900.000   -1.501E+01    2.3891057E+06   -8.9533292E+02    1.4443700E+03    2.3891057E+06   -1.4443576E+03    2.3914454E+06
   -1.01   900.000   -1.531E+01    2.4129772E+06   -1.4139291E+03    9.5431206E+02    2.4129772E+06   -9.5430111E+02    2.4153455E+06
   -1.00   900.000   -1.562E+01    2.4361192E+06   -1.9088629E+03    4.9288218E+02    2.4361192E+06   -4.9287263E+02    2.4385210E+06
   -0.99   900.000   -1.593E+01    2.4587139E+06   -2.3646864E+03    7.6466087E+01    2.4587139E+06   -7.6457920E+01    2.4611550E+06
   -0.98   900.000   -1.624E+01    2.4809196E+06   -2.7668750E+03   -2.7959414E+02    2.4809196E+06    2.7960096E+02    2.4834069E+06
   -0.97   900.000   -1.655E+01    2.5028654E+06   -3.1022919E+03   -5.6152551E+02    2.5028654E+06    5.6153103E+02    2.5054061E+06
   -0.96   900.000   -1.687E+01    2.5246490E+06   -3.3596220E+03   -7.5760402E+02    2.5246490E+06    7.5760831E+02    2.5272510E+06
   -0.95   900.000   -1.719E+01    2.5463410E+06   -3.5297694E+03   -8.5857907E+02    2.5463410E+06    8.5858219E+02    2.5490122E+06
   -0.94   900.000   -1.752E+01    2.5679928E+06   -3.6062126E+03   -8.5803559E+02    2.5679927E+06    8.5803761E+02    2.5707409E+06
   -0.93   900.000   -1.785E+01    2.5896476E+06   -3.5853112E+03   -7.5268781E+02    2.5896476E+06    7.5268882E+02    2.5924802E+06
   -0.92   900.000   -1.818E+01    2.6113537E+06   -3.4665515E+03   -5.4259410E+02    2.6113537E+06    5.4259417E+02    2.6142776E+06
   -0.91   900.000   -1.851E+01    2.6331766E+06   -3.2527084E+03   -2.3127578E+02    2.6331766E+06    2.3127496E+02    2.6361980E+06
   -0.90   900.000   -1.885E+01    2.6552102E+06   -2.9498959E+03    1.7428348E+02    2.6552102E+06   -1.7428512E+02    2.6583344E+06
   -0.89   900.000   -1.920E+01    2.6775836E+06   -2.5674748E+03    6.6378306E+02    2.6775836E+06   -6.6378547E+02    2.6808148E+06
   -0.88   900.000   -1.954E+01    2.7004635E+06   -2.1177895E+03    1.2239165E+03    2.7004635E+06   -1.2239196E+03    2.7038052E+06
   -0.87   900.000   -1.989E+01    2.7240517E+06   -1.6157235E+03    1.8388560E+03    2.7240517E+06   -1.8388599E+03    2.7275063E+06
   -0.86   900.000   -2.025E+01    2.7485767E+06   -1.0780789E+03    2.4908999E+03    2.7485767E+06   -2.4909044E+03    2.7521456E+06
   -0.85   900.000   -2.060E+01    2.7742813E+06   -5.2281470E+02    3.1612485E+03    2.7742813E+06   -3.1612537E+03    2.7779653E+06
   -0.84   900.000   -2.097E+01    2.8014070E+06    3.1804080E+01    3.8308561E+03    2.8014070E+06   -3.8308621E+03    2.8052061E+06
   -0.83   900.000   -2.133E+01    2.8301767E+06    5.6807445E+02    4.4812917E+03    2.8301767E+06   -4.4812983E+03    2.8340899E+06
   -0.82   900.000   -2.170E+01    2.8607769E+06    1.0696674E+03    5.0955375E+03    2.8607769E+06   -5.0955449E+03    2.8648028E+06
   -0.81   900.000   -2.208E+01    2.8933424E+06    1.5223155E+03    5.6586640E+03    2.8933424E+06   -5.6586722E+03    2.8974788E+06
   -0.80   900.000   -2.245E+01    2.9279438E+06    1.9143257E+03    6.1583339E+03    2.9279438E+06   -6.1583428E+03    2.9321879E+06
   -0.79   900.000   -2.284E+01    2.9645791E+06    2.2368896E+03    6.5851122E+03    2.9645792E+06   -6.5851220E+03    2.9689274E+06
   -0.78   900.000   -2.322E+01    3.0031700E+06    2.4841912E+03    6.9325825E+03    3.0031700E+06   -6.9325932E+03    3.0076184E+06
   -0.77   900.000   -2.361E+01    3.0435629E+06    2.6533313E+03    7.1972901E+03    3.0435629E+06   -7.1973017E+03    3.0481068E+06
   -0.76   900.000   -2.401E+01    3.0855343E+06    2.7441067E+03    7.3785471E+03    3.0855343E+06   -7.3785597E+03    3.0901688E+06
   -0.75   900.000   -2.441E+01    3.1288003E+06    2.7586921E+03    7.4781431E+03    3.1288003E+06   -7.4781567E+03    3.1335198E+06
   -0.74   900.000   -2.481E+01    3.1730280E+06    2.7012716E+03    7.5000053E+03    3.1730280E+06   -7.5000200E+03    3.1778268E+06
   -0.73   900.000   -2.522E+01    3.2178496E+06    2.5776647E+03    7.4498468E+03    3.2178496E+06   -7.4498627E+03    3.2227218E+06
   -0.72   900.000   -2.563E+01    3.2628766E+06    2.3949822E+03    7.3348346E+03    3.2628766E+06   -7.3348517E+03    3.2678164E+06
   -0.71   900.000   -2.605E+01    3.3077145E+06    2.1613337E+03    7.1632966E+03    3.3077145E+06   -7.1633148E+03    3.3127164E+06
   -0.70   900.000   -2.647E+01    3.3519762E+06    1.8855965E+03    6.9444756E+03    3.3519763E+06   -6.9444950E+03    3.3570351E+06
   -0.69   900.000   -2.689E+01    3.3952943E+06    1.5772405E+03    6.6883277E+03    3.3952944E+06   -6.6883483E+03    3.4004054E+06
   -0.68   900.000   -2.732E+01    3.4373309E+06    1.2461930E+03    6.4053506E+03    3.4373309E+06   -6.4053724E+03    3.4424901E+06
   -0.67   900.000   -2.775E+01    3.4777858E+06    9.0271602E+02    6.1064202E+03    3.4777858E+06   -6.1064431E+03    3.4829895E+06
   -0.66   900.000   -2.818E+01    3.5164021E+06    5.5726875E+02    5.8026131E+03    3.5164021E+06   -5.8026370E+03    3.5216475E+06
   -0.65   900.000   -2.862E+01    3.5529703E+06    2.2032625E+02    5.5049921E+03    3.5529703E+06   -5.5050170E+03    3.5582549E+06
   -0.64   900.000   -2.906E+01    3.5873292E+06   -9.7861448E+01    5.2243424E+03    3.5873292E+06   -5.2243682E+03    3.5926514E+06
   -0.63   900.000   -2.950E+01    3.6193666E+06   -3.8757506E+02    4.9708553E+03    3.6193666E+06   -4.9708818E+03    3.6247250E+06
   -0.62   900.000   -2.994E+01    3.6490177E+06   -6.3998495E+02    4.7537714E+03    3.6490177E+06   -4.7537986E+03    3.6544114E+06
   -0.61   900.000   -3.039E+01    3.6762628E+06   -8.4753835E+02    4.5810078E+03    3.6762628E+06   -4.5810355E+03    3.6816913E+06
   -0.60   900.000   -3.084E+01    3.7011242E+06   -1.0043409E+03    4.4587978E+03    3.7011242E+06   -4.4588259E+03    3.7065873E+06
   -0.59   900.000   -3.129E+01    3.7236624E+06   -1.1064959E+03    4.3913794E+03    3.7236624E+06   -4.3914077E+03    3.7291603E+06
   -0.58   900.000   -3.174E+01    3.7439719E+06   -1.1523678E+03    4.3807612E+03    3.7439719E+06   -4.3807896E+03    3.7495050E+06
   -0.57   900.000   -3.219E+01    3.7621761E+06   -1.1427471E+03    4.4265863E+03    3.7621761E+06   -4.4266146E+03    3.7677454E+06
   -0.56   900.000   -3.264E+01    3.7784221E+06   -1.0809023E+03    4.5261074E+03    3.7784221E+06   -4.5261353E+03    3.7840291E+06
   -0.55   900.000   -3.309E+01    3.7928750E+06   -9.7251681E+02    4.6742711E+03    3.7928750E+06   -4.6742986E+03    3.7985218E+06
   -0.54   900.000   -3.355E+01    3.8057117E+06   -8.2551788E+02    4.8639059E+03    3.8057117E+06   -4.8639328E+03    3.8114011E+06
   -0.53   900.000   -3.400E+01    3.8171148E+06   -6.4980766E+02    5.0859976E+03    3.8171148E+06   -5.0860239E+03    3.8228506E+06
   -0.52   900.000   -3.446E+01    3.8272670E+06   -4.5691078E+02    5.3300373E+03    3.8272670E+06   -5.3300628E+03    3.8330540E+06
   -0.51   900.000   -3.491E+01    3.8363458E+06   -2.5955217E+02    5.5844239E+03    3.8363458E+06   -5.5844485E+03    3.8421898E+06
   -0.50   900.000   -3.537E+01    3.8445194E+06   -7.1178833E+01    5.8369053E+03    3.8445194E+06   -5.8369290E+03    3.8504275E+06
   -0.49   900.000   -3.582E+01    3.8519438E+06    9.4560667E+01    6.0750432E+03    3.8519438E+06   -6.0750659E+03    3.8579243E+06
   -0.48   900.000   -3.627E+01    3.8587610E+06    2.2436393E+02    6.2866872E+03    3.8587610E+06   -6.2867089E+03    3.8648233E+06
   -0.47   900.000   -3.673E+01    3.8650990E+06    3.0583237E+02    6.4604444E+03    3.8650991E+06   -6.4604651E+03    3.8712537E+06
   -0.46   900.000   -3.718E+01    3.8710727E+06    3.2801810E+02    6.5861303E+03    3.8710727E+06   -6.5861500E+03    3.8773308E+06
   -0.45   900.000   -3.763E+01    3.8767850E+06    2.8193620E+02    6.6551835E+03    3.8767850E+06   -6.6552023E+03    3.8831583E+06
   -0.44   900.000   -3.808E+01    3.8823298E+06    1.6101664E+02    6.6610302E+03    3.8823298E+06   -6.6610481E+03    3.8888298E+06
   -0.43   900.000   -3.853E+01    3.8877934E+06   -3.8530247E+01    6.5993781E+03    3.8877934E+06   -6.5993952E+03    3.8944313E+06
   -0.42   900.000   -3.898E+01    3.8932569E+06   -3.1745767E+02    6.4684276E+03    3.8932569E+06   -6.4684438E+03    3.9000428E+06
   -0.41   900.000   -3.943E+01    3.8987969E+06   -6.7335279E+02    6.2689856E+03    3.8987969E+06   -6.2690009E+03    3.9057393E+06
   -0.40   900.000   -3.987E+01    3.9044862E+06   -1.1006427E+03    6.0044770E+03    3.9044862E+06   -6.0044915E+03    3.9115913E+06
   -0.39   900.000   -4.031E+01    3.9103925E+06   -1.5907360E+03    5.6808527E+03    3.9103925E+06   -5.6808663E+03    3.9176641E+06
   -0.38   900.000   -4.076E+01    3.9165762E+06   -2.1322915E+03    5.3063977E+03    3.9165762E+06   -5.3064104E+03    3.9240149E+06
   -0.37   900.000   -4.120E+01    3.9230871E+06   -2.7116005E+03    4.8914483E+03    3.9230871E+06   -4.8914601E+03    3.9306902E+06
   -0.36   900.000   -4.164E+01    3.9299597E+06   -3.3130676E+03    4.4480256E+03    3.9299597E+06   -4.4480363E+03    3.9377208E+06
   -0.35   900.000   -4.207E+01    3.9372076E+06   -3.9197746E+03    3.9893921E+03    3.9372076E+06   -3.9894017E+03    3.9451167E+06
   -0.34   900.000   -4.251E+01    3.9448176E+06   -4.5141157E+03    3.5295371E+03    3.9448176E+06   -3.5295455E+03    3.9528613E+06
   -0.33   900.000   -4.294E+01    3.9527444E+06   -5.0784940E+03    3.0825952E+03    3.9527444E+06   -3.0826024E+03    3.9609055E+06
   -0.32   900.000   -4.338E+01    3.9609061E+06   -5.5960657E+03    2.6622076E+03    3.9609061E+06   -2.6622134E+03    3.9691644E+06
   -0.31   900.000   -4.381E+01    3.9691815E+06   -6.0515139E+03    2.2808433E+03    3.9691815E+06   -2.2808477E+03    3.9775139E+06
   -0.30   900.000   -4.424E+01    3.9774105E+06   -6.4318212E+03    1.9491127E+03    3.9774105E+06   -1.9491155E+03    3.9857914E+06
   -0.29   900.000   -4.467E+01    3.9853971E+06   -6.7269976E+03    1.6751181E+03    3.9853971E+06   -1.6751195E+03    3.9937993E+06
   -0.28   900.000   -4.510E+01    3.9929162E+06   -6.9307071E+03    1.4639003E+03    3.9929162E+06   -1.4639001E+03    4.0013108E+06
   -0.27   900.000   -4.553E+01    3.9997226E+06   -7.0407290E+03    1.3170443E+03    3.9997226E+06   -1.3170427E+03    4.0080804E+06
   -0.26   900.000   -4.596E+01    4.0055628E+06   -7.0591895E+03    1.2325067E+03    4.0055629E+06   -1.2325037E+03    4.0138545E+06
   -0.25   900.000   -4.639E+01    4.0101884E+06   -6.9925141E+03    1.2047084E+03    4.0101884E+06   -1.2047040E+03    4.0183857E+06
   -0.24   900.000   -4.683E+01    4.0133687E+06   -6.8510727E+03    1.2249109E+03    4.0133687E+06   -1.2249053E+03    4.0214447E+06
   -0.23   900.000   -4.726E+01    4.0149031E+06   -6.6485286E+03    1.2818583E+03    4.0149032E+06   -1.2818516E+03    4.0228335E+06
   -0.22   900.000   -4.769E+01    4.0146311E+06   -6.4009374E+03    1.3626287E+03    4.0146312E+06   -1.3626210E+03    4.0223948E+06
   -0.21   900.000   -4.813E+01    4.0124395E+06   -6.1256848E+03    1.4536035E+03    4.0124395E+06   -1.4535950E+03    4.0200188E+06
   -0.20   900.000   -4.857E+01    4.0082660E+06   -5.8403741E+03    1.5414440E+03    4.0082661E+06   -1.5414350E+03    4.0156479E+06
   -0.19   900.000   -4.901E+01    4.0021009E+06   -5.5617897E+03    1.6139568E+03    4.0021009E+06   -1.6139474E+03    4.0092767E+06
   -0.18   900.000   -4.946E+01    3.9939847E+06   -5.3050500E+03    1.6607454E+03    3.9939847E+06   -1.6607357E+03    4.0009505E+06
   -0.17   900.000   -4.991E+01    3.9840052E+06   -5.0830362E+03    1.6735792E+03    3.9840052E+06   -1.6735694E+03    3.9907618E+06
   -0.16   900.000   -5.036E+01    3.9722927E+06   -4.9061422E+03    1.6464497E+03    3.9722927E+06   -1.6464400E+03    3.9788453E+06
   -0.15   900.000   -5.082E+01    3.9590153E+06   -4.7823433E+03    1.5753327E+03    3.9590153E+06   -1.5753232E+03    3.9653730E+06
   -0.14   900.000   -5.128E+01    3.9443737E+06   -4.7175394E+03    1.4577133E+03    3.9443737E+06   -1.4577040E+03    3.9505490E+06
   -0.13   900.000   -5.174E+01    3.9285970E+06   -4.7160952E+03    1.2919569E+03    3.9285970E+06   -1.2919482E+03    3.9346051E+06
   -0.12   900.000   -5.222E+01    3.9119375E+06   -4.7814850E+03    1.0766241E+03    3.9119375E+06   -1.0766158E+03    3.9177956E+06
   -0.11   900.000   -5.270E+01    3.8946655E+06   -4.9169475E+03    8.0981733E+02    3.8946655E+06   -8.0980964E+02    3.9003923E+06
   -0.10   900.000   -5.318E+01    3.8770630E+06   -5.1260695E+03    4.8863796E+02    3.8770630E+06   -4.8863090E+02    3.8826777E+06
   -0.09   900.000   -5.368E+01    3.8594159E+06   -5.4132383E+03    1.0880132E+02    3.8594159E+06   -1.0879492E+02    3.8649379E+06
   -0.08   900.000   -5.418E+01    3.8420045E+06   -5.7839274E+03   -3.3556399E+02    3.8420045E+06    3.3556971E+02    3.8474529E+06
   -0.07   900.000   -5.468E+01    3.8250929E+06   -6.2448043E+03   -8.5193211E+02    3.8250929E+06    8.5193716E+02    3.8304857E+06
   -0.06   900.000   -5.520E+01    3.8089176E+06   -6.8036670E+03   -1.4492279E+03    3.8089176E+06    1.4492323E+03    3.8142720E+06
   -0.05   900.000   -5.572E+01    3.7936766E+06   -7.4692312E+03   -2.1375351E+03    3.7936766E+06    2.1375389E+03    3.7990083E+06
   -0.04   900.000   -5.625E+01    3.7795197E+06   -8.2507967E+03   -2.9276969E+03    3.7795197E+06    2.9277001E+03    3.7848428E+06
   -0.03   900.000   -5.679E+01    3.7665415E+06   -9.1578237E+03   -3.8308424E+03    3.7665415E+06    3.8308451E+03    3.7718685E+06
   -0.02   900.000   -5.734E+01    3.7547781E+06   -1.0199452E+04   -4.8578698E+03    3.7547781E+06    4.8578720E+03    3.7601197E+06
   -0.01   900.000   -5.790E+01    3.7442076E+06   -1.1383996E+04   -6.0189145E+03    3.7442076E+06    6.0189164E+03    3.7495727E+06
    0.00   900.000   -5.846E+01    3.7347555E+06   -1.2718443E+04   -7.3228308E+03    3.7347555E+06    7.3228325E+03    3.7401511E+06
    0.01   900.000   -5.903E+01    3.7263033E+06   -1.4207988E+04   -8.7767144E+03    3.7263033E+06    8.7767159E+03    3.7317346E+06
    0.02   900.000   -5.962E+01    3.7187012E+06   -1.5855645E+04   -1.0385496E+04    3.7187012E+06    1.0385497E+04    3.7241714E+06
    0.03   900.000   -6.020E+01    3.7117825E+06   -1.7661949E+04   -1.2151632E+04    3.7117825E+06    1.2151634E+04    3.7172928E+06
    0.04   900.000   -6.080E+01    3.7053791E+06   -1.9624789E+04   -1.4074922E+04    3.7053791E+06    1.4074924E+04    3.7109290E+06
    0.05   900.000   -6.140E+01    3.6993366E+06   -2.1739381E+04   -1.6152457E+04    3.6993366E+06    1.6152459E+04    3.7049235E+06
    0.06   900.000   -6.202E+01    3.6935276E+06   -2.3998381E+04   -1.8378714E+04    3.6935276E+06    1.8378716E+04    3.6991473E+06
    0.07   900.000   -6.263E+01    3.6878618E+06   -2.6392140E+04   -2.0745771E+04    3.6878618E+06    2.0745774E+04    3.6935082E+06
    0.08   900.000   -6.326E+01    3.6822930E+06   -2.8909055E+04   -2.3243636E+04    3.6822931E+06    2.3243639E+04    3.6879585E+06
    0.09   900.000   -6.389E+01    3.6768215E+06   -3.1536005E+04   -2.5860624E+04    3.6768216E+06    2.5860628E+04    3.6824970E+06
    0.10   900.000   -6.453E+01    3.6714923E+06   -3.4258812E+04   -2.8583773E+04    3.6714923E+06    2.8583777E+04    3.6771673E+06
    0.11   900.000   -6.518E+01    3.6663894E+06   -3.7062691E+04   -3.1399230E+04    3.6663894E+06    3.1399235E+04    3.6720529E+06
    0.12   900.000   -6.583E+01    3.6616279E+06   -3.9932661E+04   -3.4292592E+04    3.6616279E+06    3.4292598E+04    3.6672680E+06
    0.13   900.000   -6.649E+01    3.6573424E+06   -4.2853855E+04   -3.7249156E+04    3.6573424E+06    3.7249162E+04    3.6629471E+06
    0.14   900.000   -6.715E+01    3.6536753E+06   -4.5811753E+04   -4.0254080E+04    3.6536754E+06    4.0254086E+04    3.6592330E+06
    0.15   900.000   -6.782E+01    3.6507650E+06   -4.8792278E+04   -4.3292445E+04    3.6507650E+06    4.3292453E+04    3.6562648E+06
    0.16   900.000   -6.850E+01    3.6487339E+06   -5.1781799E+04   -4.6349234E+04    3.6487339E+06    4.6349243E+04    3.6541665E+06
    0.17   900.000   -6.918E+01    3.6476794E+06   -5.4767035E+04   -4.9409244E+04    3.6476794E+06    4.9409253E+04    3.6530372E+06
    0.18   900.000   -6.987E+01    3.6476659E+06   -5.7734890E+04   -5.2456960E+04    3.6476660E+06    5.2456970E+04    3.6529439E+06
    0.19   900.000   -7.057E+01    3.6487199E+06   -6.0672247E+04   -5.5476437E+04    3.6487200E+06    5.5476448E+04    3.6539158E+06
    0.20   900.000   -7.127E+01    3.6508274E+06   -6.3565753E+04   -5.8451185E+04    3.6508275E+06    5.8451197E+04    3.6559421E+06
    0.21   900.000   -7.198E+01    3.6539344E+06   -6.6401630E+04   -6.1364118E+04    3.6539345E+06    6.1364130E+04    3.6589720E+06
    0.22   900.000   -7.270E+01    3.6579497E+06   -6.9165523E+04   -6.4197543E+04    3.6579498E+06    6.4197557E+04    3.6629178E+06
    0.23   900.000   -7.342E+01    3.6627501E+06   -7.1842413E+04   -6.6933239E+04    3.6627502E+06    6.6933254E+04    3.6676594E+06
    0.24   900.000   -7.414E+01    3.6681885E+06   -7.4416613E+04   -6.9552595E+04    3.6681886E+06    6.9552611E+04    3.6730527E+06
    0.25   900.000   -7.487E+01    3.6741031E+06   -7.6871861E+04   -7.2036848E+04    3.6741032E+06    7.2036864E+04    3.6789382E+06
    0.26   900.000   -7.561E+01    3.6803281E+06   -7.9191526E+04   -7.4367410E+04    3.6803282E+06    7.4367428E+04    3.6851523E+06
    0.27   900.000   -7.635E+01    3.6867055E+06   -8.1358942E+04   -7.6526302E+04    3.6867056E+06    7.6526321E+04    3.6915382E+06
    0.28   900.000   -7.710E+01    3.6930959E+06   -8.3357858E+04   -7.8496681E+04    3.6930960E+06    7.8496701E+04    3.6979572E+06
    0.29   900.000   -7.786E+01    3.6993887E+06   -8.5173008E+04   -8.0263445E+04    3.6993888E+06    8.0263466E+04    3.7042984E+06
    0.30   900.000   -7.861E+01    3.7055095E+06   -8.6790730E+04   -8.1813878E+04    3.7055096E+06    8.1813899E+04    3.7104864E+06
    0.31   900.000   -7.938E+01    3.7114250E+06   -8.8199591E+04   -8.3138261E+04    3.7114251E+06    8.3138282E+04    3.7164864E+06
    0.32   900.000   -8.015E+01    3.7171437E+06   -8.9390944E+04   -8.4230376E+04    3.7171438E+06    8.4230398E+04    3.7223044E+06
    0.33   900.000   -8.092E+01    3.7227130E+06   -9.0359321E+04   -8.5087838E+04    3.7227131E+06    8.5087859E+04    3.7279846E+06
    0.34   900.000   -8.170E+01    3.7282113E+06   -9.1102621E+04   -8.5712173E+04    3.7282114E+06    8.5712193E+04    3.7336019E+06
    0.35   900.000   -8.248E+01    3.7337378E+06   -9.1622056E+04   -8.6108643E+04    3.7337379E+06    8.6108663E+04    3.7392513E+06
    0.36   900.000   -8.326E+01    3.7393979E+06   -9.1921863E+04   -8.6285808E+04    3.7393980E+06    8.6285827E+04    3.7450341E+06
    0.37   900.000   -8.406E+01    3.7452884E+06   -9.2008841E+04   -8.6254898E+04    3.7452885E+06    8.6254916E+04    3.7510425E+06
    0.38   900.000   -8.485E+01    3.7514812E+06   -9.1891775E+04   -8.6029063E+04    3.7514813E+06    8.6029079E+04    3.7573440E+06
    0.39   900.000   -8.565E+01    3.7580083E+06   -9.1580848E+04   -8.5622611E+04    3.7580085E+06    8.5622626E+04    3.7639667E+06
    0.40   900.000   -8.646E+01    3.7648501E+06   -9.1087115E+04   -8.5050321E+04    3.7648503E+06    8.5050334E+04    3.7708870E+06
    0.41   900.000   -8.727E+01    3.7719259E+06   -9.0422087E+04   -8.4326883E+04    3.7719260E+06    8.4326894E+04    3.7780212E+06
    0.42   900.000   -8.809E+01    3.7790895E+06   -8.9597454E+04   -8.3466509E+04    3.7790896E+06    8.3466519E+04    3.7852206E+06
    0.43   900.000   -8.891E+01    3.7861297E+06   -8.8624926E+04   -8.2482702E+04    3.7861298E+06    8.2482709E+04    3.7922720E+06
    0.44   900.000   -8.973E+01    3.7927745E+06   -8.7516147E+04   -8.1388133E+04    3.7927747E+06    8.1388138E+04    3.7989027E+06
    0.45   900.000   -9.056E+01    3.7987005E+06   -8.6282637E+04   -8.0194596E+04    3.7987006E+06    8.0194600E+04    3.8047887E+06
    0.46   900.000   -9.140E+01    3.8035444E+06   -8.4935708E+04   -7.8912967E+04    3.8035446E+06    7.8912970E+04    3.8095673E+06
    0.47   900.000   -9.224E+01    3.8069181E+06   -8.3486327E+04   -7.7553144E+04    3.8069182E+06    7.7553145E+04    3.8128514E+06
    0.48   900.000   -9.308E+01    3.8084239E+06   -8.1944924E+04   -7.6123952E+04    3.8084240E+06    7.6123952E+04    3.8142450E+06
    0.49   900.000   -9.393E+01    3.8076711E+06   -8.0321186E+04   -7.4633043E+04    3.8076712E+06    7.4633042E+04    3.8133594E+06
    0.50   900.000   -9.479E+01    3.8042914E+06   -7.8623877E+04   -7.3086822E+04    3.8042915E+06    7.3086821E+04    3.8098286E+06
    0.51   900.000   -9.565E+01    3.7979526E+06   -7.6860746E+04   -7.1490459E+04    3.7979527E+06    7.1490457E+04    3.8033229E+06
    0.52   900.000   -9.651E+01    3.7883705E+06   -7.5038580E+04   -6.9848029E+04    3.7883706E+06    6.9848026E+04    3.7935612E+06
    0.53   900.000   -9.738E+01    3.7753187E+06   -7.3163404E+04   -6.8162791E+04    3.7753188E+06    6.8162789E+04    3.7803194E+06
    0.54   900.000   -9.825E+01    3.7586339E+06   -7.1240826E+04   -6.6437598E+04    3.7586340E+06    6.6437596E+04    3.7634372E+06
    0.55   900.000   -9.912E+01    3.7382195E+06   -6.9276448E+04   -6.4675365E+04    3.7382196E+06    6.4675362E+04    3.7428207E+06
    0.56   900.000   -9.999E+01    3.7140449E+06   -6.7276275E+04   -6.2879521E+04    3.7140450E+06    6.2879518E+04    3.7184418E+06
    0.57   900.000   -1.009E+02    3.6861422E+06   -6.5246996E+04   -6.1054348E+04    3.6861423E+06    6.1054346E+04    3.6903349E+06
    0.58   900.000   -1.017E+02    3.6546001E+06   -6.3196082E+04   -5.9205108E+04    3.6546002E+06    5.9205106E+04    3.6585912E+06
    0.59   900.000   -1.026E+02    3.6195562E+06   -6.1131622E+04   -5.7337924E+04    3.6195563E+06    5.7337923E+04    3.6233500E+06
    0.60   900.000   -1.035E+02    3.5811876E+06   -5.9061914E+04   -5.5459402E+04    3.5811876E+06    5.5459401E+04    3.5847902E+06
    0.61   900.000   -1.043E+02    3.5397020E+06   -5.6994857E+04   -5.3576040E+04    3.5397021E+06    5.3576040E+04    3.5431209E+06
    0.62   900.000   -1.052E+02    3.4953294E+06   -5.4937237E+04   -5.1693538E+04    3.4953295E+06    5.1693539E+04    3.4985732E+06
    0.63   900.000   -1.061E+02    3.4483151E+06   -5.2894039E+04   -4.9816108E+04    3.4483152E+06    4.9816109E+04    3.4513932E+06
    0.64   900.000   -1.069E+02    3.3989149E+06   -5.0867914E+04   -4.7945933E+04    3.3989150E+06    4.7945934E+04    3.4018370E+06
    0.65   900.000   -1.077E+02    3.3473928E+06   -4.8858910E+04   -4.6082876E+04    3.3473928E+06    4.6082878E+04    3.3501689E+06
    0.66   900.000   -1.086E+02    3.2940202E+06   -4.6864540E+04   -4.4224526E+04    3.2940203E+06    4.4224528E+04    3.2966603E+06
    0.67   900.000   -1.094E+02    3.2390779E+06   -4.4880208E+04   -4.2366585E+04    3.2390780E+06    4.2366587E+04    3.2415916E+06
    0.68   900.000   -1.102E+02    3.1828579E+06   -4.2899963E+04   -4.0503581E+04    3.1828580E+06    4.0503583E+04    3.1852543E+06
    0.69   900.000   -1.110E+02    3.1256658E+06   -4.0917495E+04   -3.8629825E+04    3.1256659E+06    3.8629827E+04    3.1279535E+06
    0.70   900.000   -1.118E+02    3.0678234E+06   -3.8927250E+04   -3.6740477E+04    3.0678235E+06    3.6740479E+04    3.0700102E+06
    0.71   900.000   -1.126E+02    3.0096690E+06   -3.6925519E+04   -3.4832601E+04    3.0096691E+06    3.4832603E+04    3.0117620E+06
    0.72   900.000   -1.134E+02    2.9515571E+06   -3.4911371E+04   -3.2906059E+04    2.9515572E+06    3.2906061E+04    2.9535625E+06
    0.73   900.000   -1.141E+02    2.8938560E+06   -3.2887317E+04   -3.0964131E+04    2.8938560E+06    3.0964133E+04    2.8957792E+06
    0.74   900.000   -1.149E+02    2.8369432E+06   -3.0859607E+04   -2.9013801E+04    2.8369432E+06    2.9013803E+04    2.8387891E+06
    0.75   900.000   -1.156E+02    2.7812004E+06   -2.8838168E+04   -2.7065651E+04    2.7812004E+06    2.7065653E+04    2.7829730E+06
    0.76   900.000   -1.163E+02    2.7270062E+06   -2.6836176E+04   -2.5133431E+04    2.7270063E+06    2.5133433E+04    2.7287091E+06
    0.77   900.000   -1.170E+02    2.6747288E+06   -2.4869343E+04   -2.3233325E+04    2.6747289E+06    2.3233327E+04    2.6763649E+06
    0.78   900.000   -1.177E+02    2.6247169E+06   -2.2955020E+04   -2.1383045E+04    2.6247170E+06    2.1383048E+04    2.6262889E+06
    0.79   900.000   -1.183E+02    2.5772918E+06   -2.1111202E+04   -1.9600836E+04    2.5772919E+06    1.9600839E+04    2.5788023E+06
    0.80   900.000   -1.190E+02    2.5327387E+06   -1.9355548E+04   -1.7904496E+04    2.5327387E+06    1.7904499E+04    2.5341898E+06
    0.81   900.000   -1.196E+02    2.4912978E+06   -1.7704501E+04   -1.6310497E+04    2.4912979E+06    1.6310500E+04    2.4926919E+06
    0.82   900.000   -1.203E+02    2.4531574E+06   -1.6172540E+04   -1.4833250E+04    2.4531575E+06    1.4833254E+04    2.4544968E+06
    0.83   900.000   -1.209E+02    2.4184460E+06   -1.4771618E+04   -1.3484551E+04    2.4184461E+06    1.3484556E+04    2.4197332E+06
    0.84   900.000   -1.215E+02    2.3872268E+06   -1.3510779E+04   -1.2273211E+04    2.3872269E+06    1.2273217E+04    2.3884645E+06
    0.85   900.000   -1.221E+02    2.3594931E+06   -1.2395946E+04   -1.1204861E+04    2.3594932E+06    1.1204867E+04    2.3606843E+06
    0.86   900.000   -1.226E+02    2.3351657E+06   -1.1429876E+04   -1.0281928E+04    2.3351658E+06    1.0281935E+04    2.3363137E+06
    0.87   900.000   -1.232E+02    2.3140925E+06   -1.0612275E+04   -9.5037643E+03    2.3140926E+06    9.5037717E+03    2.3152011E+06
    0.88   900.000   -1.238E+02    2.2960512E+06   -9.9400409E+03   -8.8669139E+03    2.2960512E+06    8.8669221E+03    2.2971244E+06
    0.89   900.000   -1.243E+02    2.2807541E+06   -9.4076458E+03   -8.3655084E+03    2.2807542E+06    8.3655173E+03    2.2817963E+06
    0.90   900.000   -1.249E+02    2.2678574E+06   -9.0076120E+03   -7.9917617E+03    2.2678575E+06    7.9917712E+03    2.2688733E+06
    0.91   900.000   -1.254E+02    2.2569724E+06   -8.7310697E+03   -7.7365366E+03    2.2569724E+06    7.7365468E+03    2.2579669E+06
    0.92   900.000   -1.259E+02    2.2476801E+06   -8.5683434E+03   -7.5899395E+03    2.2476801E+06    7.5899504E+03    2.2486585E+06
    0.93   900.000   -1.265E+02    2.2395484E+06   -8.5095249E+03   -7.5418944E+03    2.2395485E+06    7.5419060E+03    2.2405161E+06
    0.94   900.000   -1.270E+02    2.2321500E+06   -8.5449805E+03   -7.5826474E+03    2.2321500E+06    7.5826596E+03    2.2331124E+06
    0.95   900.000   -1.275E+02    2.2250805E+06   -8.6657527E+03   -7.7031606E+03    2.2250806E+06    7.7031734E+03    2.2260432E+06
    0.96   900.000   -1.280E+02    2.2179766E+06   -8.8638274E+03   -7.8953681E+03    2.2179766E+06    7.8953815E+03    2.2189451E+06
    0.97   900.000   -1.286E+02    2.2105303E+06   -9.1322572E+03   -8.1522850E+03    2.2105304E+06    8.1522989E+03    2.2115104E+06
    0.98   900.000   -1.291E+02    2.2025019E+06   -9.4651488E+03   -8.4679799E+03    2.2025019E+06    8.4679944E+03    2.2034991E+06
    0.99   900.000   -1.296E+02    2.1937272E+06   -9.8575397E+03   -8.8374378E+03    2.1937272E+06    8.8374529E+03    2.1947473E+06
    1.00   900.000   -1.302E+02    2.1841216E+06   -1.0305198E+04   -9.2563465E+03    2.1841216E+06    9.2563621E+03    2.1851705E+06
    1.01   900.000   -1.307E+02    2.1736792E+06   -1.0804381E+04   -9.7208486E+03    2.1736792E+06    9.7208648E+03    2.1747627E+06
    1.02   900.000   -1.312E+02    2.1624677E+06   -1.1351593E+04   -1.0227293E+04    2.1624678E+06    1.0227310E+04    2.1635921E+06
    1.03   900.000   -1.318E+02    2.1506204E+06   -1.1943356E+04   -1.0772015E+04    2.1506204E+06    1.0772032E+04    2.1517917E+06
    1.04   900.000   -1.323E+02    2.1383240E+06   -1.2576040E+04   -1.1351168E+04    2.1383240E+06    1.1351186E+04    2.1395489E+06
    1.05   900.000   -1.329E+02    2.1258060E+06   -1.3245728E+04   -1.1960611E+04    2.1258061E+06    1.1960629E+04    2.1270912E+06
    1.06   900.000   -1.334E+02    2.1133199E+06   -1.3948151E+04   -1.2595864E+04    2.1133199E+06    1.2595883E+04    2.1146722E+06
    1.07   900.000   -1.340E+02    2.1011296E+06   -1.4678676E+04   -1.3252121E+04    2.1011296E+06    1.3252140E+04    2.1025561E+06
    1.08   900.000   -1.346E+02    2.0894954E+06   -1.5432335E+04   -1.3924315E+04    2.0894954E+06    1.3924335E+04    2.0910034E+06
    1.09   900.000   -1.352E+02    2.0786602E+06   -1.6203911E+04   -1.4607228E+04    2.0786602E+06    1.4607249E+04    2.0802569E+06
    1.10   900.000   -1.358E+02    2.0688371E+06   -1.6988039E+04   -1.5295633E+04    2.0688371E+06    1.5295654E+04    2.0705295E+06
    1.11   900.000   -1.364E+02    2.0602005E+06   -1.7779345E+04   -1.5984449E+04    2.0602005E+06    1.5984471E+04    2.0619954E+06
    1.12   900.000   -1.370E+02    2.0528781E+06   -1.8572581E+04   -1.6668908E+04    2.0528781E+06    1.6668930E+04    2.0547818E+06
    1.13   900.000   -1.377E+02    2.0469478E+06   -1.9362761E+04   -1.7344700E+04    2.0469478E+06    1.7344723E+04    2.0489658E+06
    1.14   900.000   -1.383E+02    2.0424356E+06   -2.0145278E+04   -1.8008100E+04    2.0424355E+06    1.8008124E+04    2.0445727E+06
    1.15   900.000   -1.390E+02    2.0393177E+06   -2.0915989E+04   -1.8656044E+04    2.0393177E+06    1.8656069E+04    2.0415777E+06
    1.16   900.000   -1.397E+02    2.0375247E+06   -2.1671261E+04   -1.9286165E+04    2.0375247E+06    1.9286190E+04    2.0399098E+06
    1.17   900.000   -1.404E+02    2.0369470E+06   -2.2407972E+04   -1.9896768E+04    2.0369469E+06    1.9896793E+04    2.0394581E+06
    1.18   900.000   -1.411E+02    2.0374428E+06   -2.3123472E+04   -2.0486760E+04    2.0374427E+06    2.0486786E+04    2.0400795E+06
    1.19   900.000   -1.418E+02    2.0388463E+06   -2.3815523E+04   -2.1055548E+04    2.0388462E+06    2.1055575E+04    2.0416062E+06
    1.20   900.000   -1.426E+02    2.0409762E+06   -2.4482208E+04   -2.1602908E+04    2.0409761E+06    2.1602936E+04    2.0438554E+06
    1.21   900.000   -1.434E+02    2.0436443E+06   -2.5121853E+04   -2.2128855E+04    2.0436443E+06    2.2128884E+04    2.0466373E+06
    1.22   900.000   -1.442E+02    2.0466638E+06   -2.5732950E+04   -2.2633523E+04    2.0466638E+06    2.2633552E+04    2.0497632E+06
    1.23   900.000   -1.450E+02    2.0498562E+06   -2.6314098E+04   -2.3117055E+04    2.0498561E+06    2.3117085E+04    2.0530532E+06
    1.24   900.000   -1.458E+02    2.0530581E+06   -2.6863955E+04   -2.3579523E+04    2.0530580E+06    2.3579554E+04    2.0563424E+06
    1.25   900.000   -1.467E+02    2.0561266E+06   -2.7381214E+04   -2.4020849E+04    2.0561265E+06    2.4020880E+04    2.0594869E+06
    1.26   900.000   -1.476E+02    2.0589440E+06   -2.7864568E+04   -2.4440746E+04    2.0589439E+06    2.4440779E+04    2.0623677E+06
    1.27   900.000   -1.485E+02    2.0614214E+06   -2.8312692E+04   -2.4838667E+04    2.0614213E+06    2.4838700E+04    2.0648953E+06
    1.28   900.000   -1.494E+02    2.0635008E+06   -2.8724223E+04   -2.5213759E+04    2.0635007E+06    2.5213792E+04    2.0670112E+06
    1.29   900.000   -1.504E+02    2.0651574E+06   -2.9097756E+04   -2.5564840E+04    2.0651573E+06    2.5564873E+04    2.0686902E+06
    1.30   900.000   -1.513E+02    2.0663994E+06   -2.9431852E+04   -2.5890401E+04    2.0663993E+06    2.5890435E+04    2.0699407E+06
    1.31   900.000   -1.523E+02    2.0672680E+06   -2.9725078E+04   -2.6188643E+04    2.0672679E+06    2.6188677E+04    2.0708043E+06
    1.32   900.000   -1.534E+02    2.0678364E+06   -2.9976059E+04   -2.6457543E+04    2.0678363E+06    2.6457577E+04    2.0713548E+06
    1.33   900.000   -1.544E+02    2.0682074E+06   -3.0183552E+04   -2.6694956E+04    2.0682073E+06    2.6694989E+04    2.0716958E+06
    1.34   900.000   -1.555E+02    2.0685106E+06   -3.0346518E+04   -2.6898716E+04    2.0685105E+06    2.6898749E+04    2.0719583E+06
    1.35   900.000   -1.565E+02    2.0688992E+06   -3.0464173E+04   -2.7066749E+04    2.0688991E+06    2.7066781E+04    2.0722965E+06
    1.36   900.000   -1.576E+02    2.0695449E+06   -3.0536011E+04   -2.7197137E+04    2.0695448E+06    2.7197168E+04    2.0728836E+06
    1.37   900.000   -1.587E+02    2.0706330E+06   -3.0561779E+04   -2.7288165E+04    2.0706329E+06    2.7288195E+04    2.0739065E+06
    1.38   900.000   -1.599E+02    2.0723556E+06   -3.0541418E+04   -2.7338314E+04    2.0723555E+06    2.7338343E+04    2.0755586E+06
    1.39   900.000   -1.610E+02    2.0749045E+06   -3.0474969E+04   -2.7346222E+04    2.0749044E+06    2.7346249E+04    2.0780331E+06
    1.40   900.000   -1.621E+02    2.0784627E+06   -3.0362466E+04   -2.7310619E+04    2.0784625E+06    2.7310644E+04    2.0815144E+06
    1.41   900.000   -1.633E+02    2.0831955E+06   -3.0203843E+04   -2.7230270E+04    2.0831953E+06    2.7230294E+04    2.0861689E+06
    1.42   900.000   -1.644E+02    2.0892419E+06   -2.9998860E+04   -2.7103925E+04    2.0892418E+06    2.7103947E+04    2.0921367E+06
    1.43   900.000   -1.656E+02    2.0967065E+06   -2.9747089E+04   -2.6930307E+04    2.0967063E+06    2.6930328E+04    2.0995231E+06
    1.44   900.000   -1.667E+02    2.1056520E+06   -2.9447936E+04   -2.6708148E+04    2.1056519E+06    2.6708167E+04    2.1083917E+06
    1.45   900.000   -1.678E+02    2.1160953E+06   -2.9100742E+04   -2.6436270E+04    2.1160951E+06    2.6436287E+04    2.1187596E+06
    1.46   900.000   -1.690E+02    2.1280045E+06   -2.8704926E+04   -2.6113721E+04    2.1280043E+06    2.6113736E+04    2.1305955E+06
    1.47   900.000   -1.701E+02    2.1413003E+06   -2.8260190E+04   -2.5739953E+04    2.1413001E+06    2.5739966E+04    2.1438204E+06
    1.48   900.000   -1.712E+02    2.1558600E+06   -2.7766751E+04   -2.5315038E+04    2.1558598E+06    2.5315050E+04    2.1583115E+06
    1.49   900.000   -1.722E+02    2.1715242E+06   -2.7225612E+04   -2.4839898E+04    2.1715241E+06    2.4839908E+04    2.1739098E+06
    1.50   900.000   -1.733E+02    2.1881070E+06   -2.6638817E+04   -2.4316537E+04    2.1881068E+06    2.4316545E+04    2.1904291E+06
    1.51   900.000   -1.744E+02    2.2054064E+06   -2.6009696E+04   -2.3748247E+04    2.2054063E+06    2.3748254E+04    2.2076677E+06
    1.52   900.000   -1.754E+02    2.2232178E+06   -2.5343053E+04   -2.3139762E+04    2.2232177E+06    2.3139767E+04    2.2254210E+06
    1.53   900.000   -1.764E+02    2.2413458E+06   -2.4645269E+04   -2.2497335E+04    2.2413456E+06    2.2497340E+04    2.2434936E+06
    1.54   900.000   -1.774E+02    2.2596160E+06   -2.3924306E+04   -2.1828716E+04    2.2596158E+06    2.1828719E+04    2.2617114E+06
    1.55   900.000   -1.784E+02    2.2778854E+06   -2.3189585E+04   -2.1143012E+04    2.2778852E+06    2.1143014E+04    2.2799318E+06
    1.56   900.000   -1.793E+02    2.2960499E+06   -2.2451734E+04   -2.0450436E+04    2.2960498E+06    2.0450438E+04    2.2980511E+06
    1.57   900.000   -1.802E+02    2.3140497E+06   -2.1722227E+04   -1.9761952E+04    2.3140496E+06    1.9761953E+04    2.3160099E+06
    1.58   900.000   -1.811E+02    2.3318706E+06   -2.1012921E+04   -1.9088833E+04    2.3318704E+06    1.9088833E+04    2.3337945E+06
    1.59   900.000   -1.820E+02    2.3495432E+06   -2.0335538E+04   -1.8442175E+04    2.3495431E+06    1.8442176E+04    2.3514365E+06
    1.60   900.000   -1.829E+02    2.3671392E+06   -1.9701132E+04   -1.7832408E+04    2.3671392E+06    1.7832408E+04    2.3690079E+06
    1.61   900.000   -1.838E+02    2.3847650E+06   -1.9119577E+04   -1.7268824E+04    2.3847649E+06    1.7268825E+04    2.3866157E+06
    1.62   900.000   -1.846E+02    2.4025535E+06   -1.8599126E+04   -1.6759195E+04    2.4025534E+06    1.6759196E+04    2.4043934E+06
    1.63   900.000   -1.855E+02    2.4206559E+06   -1.8146065E+04   -1.6309463E+04    2.4206558E+06    1.6309464E+04    2.4224924E+06
    1.64   900.000   -1.863E+02    2.4392321E+06   -1.7764489E+04   -1.5923564E+04    2.4392320E+06    1.5923565E+04    2.4410729E+06
    1.65   900.000   -1.871E+02    2.4584427E+06   -1.7456206E+04   -1.5603364E+04    2.4584426E+06    1.5603365E+04    2.4602955E+06
    1.66   900.000   -1.879E+02    2.4784415E+06   -1.7220789E+04   -1.5348725E+04    2.4784415E+06    1.5348726E+04    2.4803135E+06
    1.67   900.000   -1.887E+02    2.4993696E+06   -1.7055749E+04   -1.5157685E+04    2.4993696E+06    1.5157686E+04    2.5012677E+06
    1.68   900.000   -1.894E+02    2.5213513E+06   -1.6956832E+04   -1.5026747E+04    2.5213513E+06    1.5026747E+04    2.5232814E+06
    1.69   900.000   -1.902E+02    2.5444918E+06   -1.6918429E+04   -1.4951250E+04    2.5444918E+06    1.4951251E+04    2.5464589E+06
    1.70   900.000   -1.910E+02    2.5688763E+06   -1.6934050E+04   -1.4925807E+04    2.5688763E+06    1.4925807E+04    2.5708845E+06
    1.71   900.000   -1.917E+02    2.5945713E+06   -1.6996859E+04   -1.4944770E+04    2.5945712E+06    1.4944770E+04    2.5966233E+06
    1.72   900.000   -1.925E+02    2.6216260E+06   -1.7100221E+04   -1.5002706E+04    2.6216259E+06    1.5002705E+04    2.6237235E+06
    1.73   900.000   -1.932E+02    2.6500759E+06   -1.7238225E+04   -1.5094835E+04    2.6500758E+06    1.5094832E+04    2.6522192E+06
    1.74   900.000   -1.940E+02    2.6799463E+06   -1.7406141E+04   -1.5217410E+04    2.6799462E+06    1.5217407E+04    2.6821350E+06
    1.75   900.000   -1.947E+02    2.7112566E+06   -1.7600800E+04   -1.5368012E+04    2.7112565E+06    1.5368008E+04    2.7134893E+06
    1.76   900.000   -1.955E+02    2.7440248E+06   -1.7820831E+04   -1.5545733E+04    2.7440248E+06    1.5545727E+04    2.7462999E+06
    1.77   900.000   -1.962E+02    2.7782722E+06   -1.8066779E+04   -1.5751243E+04    2.7782722E+06    1.5751236E+04    2.7805877E+06
    1.78   900.000   -1.969E+02    2.8140268E+06   -1.8341067E+04   -1.5986739E+04    2.8140268E+06    1.5986730E+04    2.8163811E+06
    1.79   900.000   -1.977E+02    2.8513271E+06   -1.8647812E+04   -1.6255770E+04    2.8513271E+06    1.6255759E+04    2.8537191E+06
    1.80   900.000   -1.984E+02    2.8902231E+06   -1.8992507E+04   -1.6562959E+04    2.8902231E+06    1.6562947E+04    2.8926527E+06
    1.81   900.000   -1.991E+02    2.9307771E+06   -1.9381581E+04   -1.6913622E+04    2.9307771E+06    1.6913607E+04    2.9332451E+06
    1.82   900.000   -1.999E+02    2.9730610E+06   -1.9821861E+04   -1.7313311E+04    2.9730610E+06    1.7313295E+04    2.9755696E+06
    1.83   900.000   -2.006E+02    3.0171527E+06   -2.0319977E+04   -1.7767316E+04    3.0171527E+06    1.7767298E+04    3.0197054E+06
    1.84   900.000   -2.014E+02    3.0631302E+06   -2.0881751E+04   -1.8280143E+04    3.0631302E+06    1.8280124E+04    3.0657318E+06
    1.85   900.000   -2.021E+02    3.1110649E+06   -2.1511622E+04   -1.8855037E+04    3.1110649E+06    1.8855015E+04    3.1137215E+06
    1.86   900.000   -2.028E+02    3.1610145E+06   -2.2212165E+04   -1.9493579E+04    3.1610145E+06    1.9493556E+04    3.1637331E+06
    1.87   900.000   -2.036E+02    3.2130171E+06   -2.2983768E+04   -2.0195428E+04    3.2130171E+06    2.0195403E+04    3.2158054E+06
    1.88   900.000   -2.043E+02    3.2670869E+06   -2.3824482E+04   -2.0958221E+04    3.2670869E+06    2.0958195E+04    3.2699532E+06
    1.89   900.000   -2.051E+02    3.3232134E+06   -2.4730101E+04   -2.1777671E+04    3.3232134E+06    2.1777643E+04    3.3261658E+06
    1.90   900.000   -2.058E+02    3.3813628E+06   -2.5694427E+04   -2.2647835E+04    3.3813628E+06    2.2647805E+04    3.3844094E+06
    1.91   900.000   -2.066E+02    3.4414846E+06   -2.6709710E+04   -2.3561528E+04    3.4414846E+06    2.3561497E+04    3.4446327E+06
    1.92   900.000   -2.074E+02    3.5035194E+06   -2.7767190E+04   -2.4510827E+04    3.5035194E+06    2.4510794E+04    3.5067757E+06
    1.93   900.000   -2.081E+02    3.5674105E+06   -2.8857671E+04   -2.5487585E+04    3.5674105E+06    2.5487551E+04    3.5707805E+06
    1.94   900.000   -2.089E+02    3.6331152E+06   -2.9972058E+04   -2.6483896E+04    3.6331152E+06    2.6483861E+04    3.6366034E+06
    1.95   900.000   -2.097E+02    3.7006165E+06   -3.1101790E+04   -2.7492444E+04    3.7006164E+06    2.7492408E+04    3.7042258E+06
    1.96   900.000   -2.104E+02    3.7699315E+06   -3.2239130E+04   -2.8506717E+04    3.7699315E+06    2.8506680E+04    3.7736639E+06
    1.97   900.000   -2.112E+02    3.8411178E+06   -3.3377295E+04   -2.9521058E+04    3.8411178E+06    2.9521020E+04    3.8449740E+06
    1.98   900.000   -2.120E+02    3.9142744E+06   -3.4510444E+04   -3.0530579E+04    3.9142744E+06    3.0530540E+04    3.9182542E+06
    1.99   900.000   -2.128E+02    3.9895376E+06   -3.5633550E+04   -3.1530986E+04    3.9895376E+06    3.1530947E+04    3.9936401E+06
    2.00   900.000   -2.136E+02    4.0670721E+06   -3.6742201E+04   -3.2518342E+04    4.0670721E+06    3.2518302E+04    4.0712960E+06
    2.01   900.000   -2.143E+02    4.1470573E+06   -3.7832396E+04   -3.3488841E+04    4.1470572E+06    3.3488801E+04    4.1514008E+06
    2.02   900.000   -2.151E+02    4.2296693E+06   -3.8900357E+04   -3.4438638E+04    4.2296693E+06    3.4438598E+04    4.2341310E+06
    2.03   900.000   -2.159E+02    4.3150618E+06   -3.9942432E+04   -3.5363759E+04    4.3150617E+06    3.5363719E+04    4.3196404E+06
    2.04   900.000   -2.167E+02    4.4033454E+06   -4.0955069E+04   -3.6260131E+04    4.4033454E+06    3.6260091E+04    4.4080403E+06
    2.05   900.000   -2.175E+02    4.4945694E+06   -4.1934903E+04   -3.7123709E+04    4.4945694E+06    3.7123670E+04    4.4993806E+06
    2.06   900.000   -2.183E+02    4.5887065E+06   -4.2878913E+04   -3.7950701E+04    4.5887064E+06    3.7950662E+04    4.5936346E+06
    2.07   900.000   -2.191E+02    4.6856428E+06   -4.3784632E+04   -3.8737838E+04    4.6856428E+06    3.8737799E+04    4.6906896E+06
    2.08   900.000   -2.199E+02    4.7851745E+06   -4.4650380E+04   -3.9482668E+04    4.7851745E+06    3.9482630E+04    4.7903422E+06
    2.09   900.000   -2.207E+02    4.8870105E+06   -4.5475456E+04   -4.0183808E+04    4.8870105E+06    4.0183771E+04    4.8923021E+06
    2.10   900.000   -2.215E+02    4.9907826E+06   -4.6260275E+04   -4.0841133E+04    4.9907826E+06    4.0841097E+04    4.9962017E+06
    2.11   900.000   -2.223E+02    5.0960612E+06   -4.7006409E+04   -4.1455854E+04    5.0960611E+06    4.1455819E+04    5.1016117E+06
    2.12   900.000   -2.231E+02    5.2023752E+06   -4.7716531E+04   -4.2030489E+04    5.2023752E+06    4.2030455E+04    5.2080612E+06
    2.13   900.000   -2.238E+02    5.3092353E+06   -4.8394254E+04   -4.2568715E+04    5.3092353E+06    4.2568682E+04    5.3150608E+06
    2.14   900.000   -2.246E+02    5.4161569E+06   -4.9043899E+04   -4.3075136E+04    5.4161569E+06    4.3075105E+04    5.4221256E+06
    2.15   900.000   -2.254E+02    5.5226825E+06   -4.9670223E+04   -4.3554987E+04    5.5226824E+06    4.3554956E+04    5.5287977E+06
    2.16   900.000   -2.262E+02    5.6284001E+06   -5.0278124E+04   -4.4013816E+04    5.6284000E+06    4.4013787E+04    5.6346643E+06
    2.17   900.000   -2.270E+02    5.7329574E+06   -5.0872382E+04   -4.4457190E+04    5.7329573E+06    4.4457162E+04    5.7393725E+06
    2.18   900.000   -2.277E+02    5.8360702E+06   -5.1457443E+04   -4.4890425E+04    5.8360701E+06    4.4890398E+04    5.8426372E+06
    2.19   900.000   -2.285E+02    5.9375246E+06   -5.2037250E+04   -4.5318392E+04    5.9375246E+06    4.5318366E+04    5.9442434E+06
    2.20   900.000   -2.293E+02    6.0371736E+06   -5.2615146E+04   -4.5745368E+04    6.0371736E+06    4.5745344E+04    6.0440434E+06
    2.21   900.000   -2.300E+02    6.1349282E+06   -5.3193813E+04   -4.6174957E+04    6.1349281E+06    4.6174934E+04    6.1419470E+06
    2.22   900.000   -2.308E+02    6.2307441E+06   -5.3775263E+04   -4.6610044E+04    6.2307440E+06    4.6610022E+04    6.2379092E+06
    2.23   900.000   -2.315E+02    6.3246057E+06   -5.4360852E+04   -4.7052807E+04    6.3246057E+06    4.7052787E+04    6.3319137E+06
    2.24   900.000   -2.323E+02    6.4165085E+06   -5.4951326E+04   -4.7504747E+04    6.4165084E+06    4.7504728E+04    6.4239550E+06
    2.25   900.000   -2.330E+02    6.5064403E+06   -5.5546888E+04   -4.7966752E+04    6.5064402E+06    4.7966734E+04    6.5140204E+06
    2.26   900.000   -2.338E+02    6.5943654E+06   -5.6147290E+04   -4.8439184E+04    6.5943653E+06    4.8439167E+04    6.6020735E+06
    2.27   900.000   -2.345E+02    6.6802103E+06   -5.6751926E+04   -4.8921972E+04    6.6802102E+06    4.8921957E+04    6.6880402E+06
    2.28   900.000   -2.352E+02    6.7638539E+06   -5.7359940E+04   -4.9414717E+04    6.7638538E+06    4.9414703E+04    6.7717990E+06
    2.29   900.000   -2.360E+02    6.8451231E+06   -5.7970308E+04   -4.9916775E+04    6.8451231E+06    4.9916762E+04    6.8531766E+06
    2.30   900.000   -2.367E+02    6.9237939E+06   -5.8581906E+04   -5.0427312E+04    6.9237938E+06    5.0427300E+04    6.9319484E+06
    2.31   900.000   -2.374E+02    6.9995981E+06   -5.9193528E+04   -5.0945331E+04    6.9995980E+06    5.0945321E+04    7.0078462E+06
    2.32   900.000   -2.381E+02    7.0722367E+06   -5.9803878E+04   -5.1469658E+04    7.0722366E+06    5.1469649E+04    7.0805708E+06
    2.33   900.000   -2.389E+02    7.1413977E+06   -6.0411527E+04   -5.1998904E+04    7.1413976E+06    5.1998896E+04    7.1498102E+06
    2.34   900.000   -2.396E+02    7.2067780E+06   -6.1014872E+04   -5.2531428E+04    7.2067779E+06    5.2531421E+04    7.2152614E+06
    2.35   900.000   -2.403E+02    7.2681081E+06   -6.1612106E+04   -5.3065331E+04    7.2681080E+06    5.3065326E+04    7.2766548E+06
    2.36   900.000   -2.410E+02    7.3251770E+06   -6.2201244E+04   -5.3598492E+04    7.3251769E+06    5.3598488E+04    7.3337797E+06
    2.37   900.000   -2.418E+02    7.3778563E+06   -6.2780202E+04   -5.4128676E+04    7.3778563E+06    5.4128673E+04    7.3865078E+06
    2.38   900.000   -2.425E+02    7.4261212E+06   -6.3346920E+04   -5.4653684E+04    7.4261211E+06    5.4653683E+04    7.4348143E+06
    2.39   900.000   -2.432E+02    7.4700658E+06   -6.3899514E+04   -5.5171535E+04    7.4700657E+06    5.5171536E+04    7.4787936E+06
    2.40   900.000   -2.439E+02    7.5099119E+06   -6.4436385E+04   -5.5680603E+04    7.5099118E+06    5.5680606E+04    7.5186676E+06
    2.41   900.000   -2.446E+02    7.5460095E+06   -6.4956257E+04   -5.6179671E+04    7.5460094E+06    5.6179674E+04    7.5547860E+06
    2.42   900.000   -2.453E+02    7.5788267E+06   -6.5458063E+04   -5.6667834E+04    7.5788266E+06    5.6667839E+04    7.5876168E+06
    2.43   900.000   -2.460E+02    7.6089311E+06   -6.5940691E+04   -5.7144246E+04    7.6089310E+06    5.7144253E+04    7.6177274E+06
    2.44   900.000   -2.467E+02    7.6369612E+06   -6.6402581E+04   -5.7607707E+04    7.6369611E+06    5.7607715E+04    7.6457560E+06
    2.45   900.000   -2.474E+02    7.6635909E+06   -6.6841243E+04   -5.8056145E+04    7.6635909E+06    5.8056155E+04    7.6723760E+06
    2.46   900.000   -2.481E+02    7.6894886E+06   -6.7252765E+04   -5.8486091E+04    7.6894885E+06    5.8486103E+04    7.6982552E+06
    2.47   900.000   -2.488E+02    7.7152749E+06   -6.7631407E+04   -5.8892215E+04    7.7152748E+06    5.8892228E+04    7.7240140E+06
    2.48   900.000   -2.495E+02    7.7414824E+06   -6.7969343E+04   -5.9266998E+04    7.7414823E+06    5.9267013E+04    7.7501847E+06
    2.49   900.000   -2.502E+02    7.7685210E+06   -6.8256598E+04   -5.9600603E+04    7.7685209E+06    5.9600619E+04    7.7771769E+06
    2.50   900.000   -2.508E+02    7.7966512E+06   -6.8481149E+04   -5.9880904E+04    7.7966511E+06    5.9880922E+04    7.8052514E+06
    2.51   900.000   -2.515E+02    7.8259674E+06   -6.8629167E+04   -6.0093667E+04    7.8259674E+06    6.0093687E+04    7.8345029E+06
    2.52   900.000   -2.522E+02    7.8563922E+06   -6.8685313E+04   -6.0222808E+04    7.8563922E+06    6.0222829E+04    7.8648547E+06
    2.53   900.000   -2.528E+02    7.8876804E+06   -6.8633035E+04   -6.0250667E+04    7.8876804E+06    6.0250689E+04    7.8960627E+06
    2.54   900.000   -2.535E+02    7.9194318E+06   -6.8454829E+04   -6.0158276E+04    7.9194317E+06    6.0158299E+04    7.9277283E+06
    2.55   900.000   -2.541E+02    7.9511110E+06   -6.8132454E+04   -5.9925621E+04    7.9511110E+06    5.9925645E+04    7.9593178E+06
    2.56   900.000   -2.548E+02    7.9820715E+06   -6.7647141E+04   -5.9531914E+04    7.9820715E+06    5.9531939E+04    7.9901867E+06
    2.57   900.000   -2.554E+02    8.0115823E+06   -6.6979848E+04   -5.8955943E+04    8.0115823E+06    5.8955969E+04    8.0196062E+06
    2.58   900.000   -2.561E+02    8.0388554E+06   -6.6111607E+04   -5.8176528E+04    8.0388554E+06    5.8176555E+04    8.0467905E+06
    2.59   900.000   -2.567E+02    8.0630729E+06   -6.5024001E+04   -5.7173113E+04    8.0630729E+06    5.7173141E+04    8.0709238E+06
    2.60   900.000   -2.573E+02    8.0834132E+06   -6.3699754E+04   -5.5926466E+04    8.0834131E+06    5.5926493E+04    8.0911864E+06
    2.61   900.000   -2.579E+02    8.0990748E+06   -6.2123405E+04   -5.4419447E+04    8.0990748E+06    5.4419474E+04    8.1067787E+06
    2.62   900.000   -2.585E+02    8.1092999E+06   -6.0282018E+04   -5.2637785E+04    8.1092999E+06    5.2637812E+04    8.1169442E+06
    2.63   900.000   -2.591E+02    8.1133951E+06   -5.8165858E+04   -5.0570788E+04    8.1133951E+06    5.0570813E+04    8.1209901E+06
    2.64   900.000   -2.597E+02    8.1107506E+06   -5.5769023E+04   -4.8211969E+04    8.1107506E+06    4.8211994E+04    8.1183077E+06
    2.65   900.000   -2.603E+02    8.1008591E+06   -5.3090041E+04   -4.5559597E+04    8.1008591E+06    4.5559620E+04    8.1083895E+06
    2.66   900.000   -2.608E+02    8.0833314E+06   -5.0132465E+04   -4.2617208E+04    8.0833314E+06    4.2617229E+04    8.0908467E+06
    2.67   900.000   -2.614E+02    8.0579119E+06   -4.6905535E+04   -3.9394154E+04    8.0579118E+06    3.9394172E+04    8.0654232E+06
    2.68   900.000   -2.619E+02    8.0244908E+06   -4.3424954E+04   -3.5906245E+04    8.0244907E+06    3.5906261E+04    8.0320095E+06
    2.69   900.000   -2.625E+02    7.9831146E+06   -3.9713783E+04   -3.2176508E+04    7.9831145E+06    3.2176521E+04    7.9906518E+06
    2.70   900.000   -2.630E+02    7.9339922E+06   -3.5803402E+04   -2.8236014E+04    7.9339922E+06    2.8236024E+04    7.9415595E+06
    2.71   900.000   -2.635E+02    7.8774972E+06   -3.1734408E+04   -2.4124677E+04    7.8774972E+06    2.4124682E+04    7.8851069E+06
    2.72   900.000   -2.640E+02    7.8141640E+06   -2.7557268E+04   -1.9891841E+04    7.8141640E+06    1.9891843E+04    7.8218294E+06
    2.73   900.000   -2.645E+02    7.7446780E+06   -2.3332496E+04   -1.5596457E+04    7.7446780E+06    1.5596454E+04    7.7524140E+06
    2.74   900.000   -2.650E+02    7.6698584E+06   -1.9130161E+04   -1.1306630E+04    7.6698584E+06    1.1306624E+04    7.6776819E+06
    2.75   900.000   -2.655E+02    7.5906344E+06   -1.5028536E+04   -7.0983874E+03    7.5906343E+06    7.0983761E+03    7.5985645E+06
    2.76   900.000   -2.660E+02    7.5080144E+06   -1.1111817E+04   -3.0535528E+03    7.5080143E+06    3.0535369E+03    7.5160726E+06
    2.77   900.000   -2.665E+02    7.4230505E+06   -7.4669352E+03    7.4323357E+02    7.4230504E+06   -7.4325415E+02    7.4312606E+06
    2.78   900.000   -2.669E+02    7.3367985E+06   -4.1795953E+03    4.2082512E+03    7.3367985E+06   -4.2082764E+03    7.3451863E+06
    2.79   900.000   -2.674E+02    7.2502773E+06   -1.3297945E+03    7.2629451E+03    7.2502772E+06   -7.2629750E+03    7.2588700E+06
    2.80   900.000   -2.678E+02    7.1644278E+06    1.0128340E+03    9.8383630E+03    7.1644277E+06   -9.8383974E+03    7.1732532E+06
    2.81   900.000   -2.683E+02    7.0800761E+06    2.7934530E+03    1.1879396E+04    7.0800760E+06   -1.1879435E+04    7.0891619E+06
    2.82   900.000   -2.687E+02    6.9979017E+06    3.9758025E+03    1.3348415E+04    6.9979016E+06   -1.3348458E+04    7.0072742E+06
    2.83   900.000   -2.692E+02    6.9184134E+06    4.5449362E+03    1.4227919E+04    6.9184133E+06   -1.4227966E+04    6.9280963E+06
    2.84   900.000   -2.696E+02    6.8419349E+06    4.5085949E+03    1.4521882E+04    6.8419348E+06   -1.4521933E+04    6.8519481E+06
    2.85   900.000   -2.700E+02    6.7686008E+06    3.8970209E+03    1.4255614E+04    6.7686007E+06   -1.4255668E+04    6.7789593E+06
    2.86   900.000   -2.704E+02    6.6983648E+06    2.7611744E+03    1.3474082E+04    6.6983647E+06   -1.3474140E+04    6.7090776E+06
    2.87   900.000   -2.709E+02    6.6310188E+06    1.1694801E+03    1.2238840E+04    6.6310187E+06   -1.2238900E+04    6.6420881E+06
    2.88   900.000   -2.713E+02    6.5662237E+06   -7.9660820E+02    1.0623825E+04    6.5662236E+06   -1.0623887E+04    6.5776440E+06
    2.89   900.000   -2.717E+02    6.5035487E+06   -3.0478120E+03    8.7104375E+03    6.5035486E+06   -8.7105022E+03    6.5153068E+06
    2.90   900.000   -2.721E+02    6.4425175E+06   -5.4925170E+03    6.5823760E+03    6.4425174E+06   -6.5824422E+03    6.4545923E+06
    2.91   900.000   -2.725E+02    6.3826580E+06   -8.0420510E+03    4.3206938E+03    6.3826579E+06   -4.3207609E+03    6.3950206E+06
    2.92   900.000   -2.729E+02    6.3235502E+06   -1.0615305E+04    1.9995156E+03    6.3235502E+06   -1.9995831E+03    6.3361650E+06
    2.93   900.000   -2.733E+02    6.2648706E+06   -1.3142348E+04   -3.1726763E+02    6.2648705E+06    3.1720014E+02    6.2776956E+06
    2.94   900.000   -2.737E+02    6.2064258E+06   -1.5566824E+04   -2.5781283E+03    6.2064258E+06    2.5780614E+03    6.2194145E+06
    2.95   900.000   -2.741E+02    6.1481759E+06   -1.7847051E+04   -4.7448005E+03    6.1481758E+06    4.7447347E+03    6.1612781E+06
    2.96   900.000   -2.745E+02    6.0902428E+06   -1.9955890E+04   -6.7920217E+03    6.0902427E+06    6.7919574E+03    6.1034065E+06
    2.97   900.000   -2.749E+02    6.0329048E+06   -2.1879557E+04   -8.7062985E+03    6.0329047E+06    8.7062363E+03    6.0460780E+06
    2.98   900.000   -2.753E+02    5.9765792E+06   -2.3615639E+04   -1.0483956E+04    5.9765791E+06    1.0483896E+04    5.9897108E+06
    2.99   900.000   -2.757E+02    5.9217937E+06   -2.5170627E+04   -1.2128764E+04    5.9217937E+06    1.2128707E+04    5.9348355E+06
    3.00   900.000   -2.762E+02    5.8691528E+06   -2.6557275E+04   -1.3649453E+04    5.8691527E+06    1.3649399E+04    5.8820605E+06
    3.01   900.000   -2.766E+02    5.8193012E+06   -2.7792085E+04   -1.5057384E+04    5.8193012E+06    1.5057334E+04    5.8320359E+06
    3.02   900.000   -2.770E+02    5.7728901E+06   -2.8893164E+04   -1.6364620E+04    5.7728900E+06    1.6364574E+04    5.7854185E+06
    3.03   900.000   -2.774E+02    5.7305468E+06   -2.9878617E+04   -1.7582534E+04    5.7305467E+06    1.7582491E+04    5.7428428E+06
    3.04   900.000   -2.778E+02    5.6928527E+06   -3.0765564E+04   -1.8721040E+04    5.6928527E+06    1.8721001E+04    5.7048972E+06
    3.05   900.000   -2.782E+02    5.6603275E+06   -3.1569761E+04   -1.9788429E+04    5.6603274E+06    1.9788395E+04    5.6721088E+06
    3.06   900.000   -2.786E+02    5.6334201E+06   -3.2305735E+04   -2.0791700E+04    5.6334200E+06    2.0791670E+04    5.6449340E+06
    3.07   900.000   -2.790E+02    5.6125050E+06   -3.2987262E+04   -2.1737228E+04    5.6125049E+06    2.1737202E+04    5.6237550E+06
    3.08   900.000   -2.794E+02    5.5978815E+06   -3.3627996E+04   -2.2631568E+04    5.5978815E+06    2.2631546E+04    5.6088779E+06
    3.09   900.000   -2.798E+02    5.5897733E+06   -3.4242033E+04   -2.3482189E+04    5.5897732E+06    2.3482172E+04    5.6005331E+06
    3.10   900.000   -2.802E+02    5.5883265E+06   -3.4844241E+04   -2.4297967E+04    5.5883264E+06    2.4297954E+04    5.5988727E+06
    3.11   900.000   -2.806E+02    5.5936052E+06   -3.5450259E+04   -2.5089323E+04    5.5936051E+06    2.5089315E+04    5.6039660E+06
    3.12   900.000   -2.810E+02    5.6055820E+06   -3.6076110E+04   -2.5867982E+04    5.6055820E+06    2.5867978E+04    5.6157901E+06
    3.13   900.000   -2.814E+02    5.6241257E+06   -3.6737502E+04   -2.6646383E+04    5.6241257E+06    2.6646382E+04    5.6342168E+06
    3.14   900.000   -2.819E+02    5.6489842E+06   -3.7448893E+04   -2.7436852E+04    5.6489842E+06    2.7436856E+04    5.6589962E+06
    3.15   900.000   -2.823E+02    5.6797664E+06   -3.8222480E+04   -2.8250669E+04    5.6797663E+06    2.8250676E+04    5.6897382E+06
    3.16   900.000   -2.827E+02    5.7159241E+06   -3.9067244E+04   -2.9097160E+04    5.7159241E+06    2.9097171E+04    5.7258942E+06
    3.17   900.000   -2.831E+02    5.7567370E+06   -3.9988173E+04   -2.9982939E+04    5.7567370E+06    2.9982952E+04    5.7667422E+06
    3.18   900.000   -2.835E+02    5.8013026E+06   -4.0985729E+04   -3.0911366E+04    5.8013026E+06    3.0911383E+04    5.8113770E+06
    3.19   900.000   -2.840E+02    5.8485352E+06   -4.2055631E+04   -3.1882266E+04    5.8485351E+06    3.1882286E+04    5.8587085E+06
    3.20   900.000   -2.844E+02    5.8971741E+06   -4.3188909E+04   -3.2891885E+04    5.8971741E+06    3.2891908E+04    5.9074712E+06
    3.21   900.000   -2.848E+02    5.9458047E+06   -4.4372254E+04   -3.3933081E+04    5.9458047E+06    3.3933106E+04    5.9562439E+06
    3.22   900.000   -2.853E+02    5.9928896E+06   -4.5588599E+04   -3.4995697E+04    5.9928896E+06    3.4995724E+04    6.0034825E+06
    3.23   900.000   -2.857E+02    6.0368129E+06   -4.6817907E+04   -3.6067090E+04    6.0368129E+06    3.6067119E+04    6.0475637E+06
    3.24   900.000   -2.862E+02    6.0759324E+06   -4.8038133E+04   -3.7132784E+04    6.0759324E+06    3.7132814E+04    6.0868378E+06
    3.25   900.000   -2.866E+02    6.1086409E+06   -4.9226320E+04   -3.8177217E+04    6.1086409E+06    3.8177249E+04    6.1196900E+06
    3.26   900.000   -2.871E+02    6.1334303E+06   -5.0359780E+04   -3.9184566E+04    6.1334303E+06    3.9184599E+04    6.1446056E+06
    3.27   900.000   -2.875E+02    6.1489575E+06   -5.1417308E+04   -4.0139607E+04    6.1489575E+06    4.0139642E+04    6.1602352E+06
    3.28   900.000   -2.880E+02    6.1541069E+06   -5.2380352E+04   -4.1028572E+04    6.1541069E+06    4.1028608E+04    6.1654587E+06
    3.29   900.000   -2.885E+02    6.1480467E+06   -5.3234061E+04   -4.1839948E+04    6.1480468E+06    4.1839984E+04    6.1594409E+06
    3.30   900.000   -2.889E+02    6.1302740E+06   -5.3968116E+04   -4.2565145E+04    6.1302740E+06    4.2565181E+04    6.1416770E+06
    3.31   900.000   -2.894E+02    6.1006462E+06   -5.4577262E+04   -4.3198982E+04    6.1006462E+06    4.3199018E+04    6.1120245E+06
    3.32   900.000   -2.899E+02    6.0593961E+06   -5.5061484E+04   -4.3739916E+04    6.0593962E+06    4.3739952E+04    6.0707177E+06
    3.33   900.000   -2.904E+02    6.0071282E+06   -5.5425778E+04   -4.4189981E+04    6.0071283E+06    4.4190017E+04    6.0183641E+06
    3.34   900.000   -2.908E+02    5.9447962E+06   -5.5679521E+04   -4.4554413E+04    5.9447963E+06    4.4554448E+04    5.9559214E+06
    3.35   900.000   -2.913E+02    5.8736624E+06   -5.5835457E+04   -4.4840964E+04    5.8736625E+06    4.4840998E+04    5.8846570E+06
    3.36   900.000   -2.918E+02    5.7952420E+06   -5.5908380E+04   -4.5058948E+04    5.7952420E+06    4.5058981E+04    5.8060915E+06
    3.37   900.000   -2.923E+02    5.7112348E+06   -5.5913602E+04   -4.5218079E+04    5.7112349E+06    4.5218110E+04    5.7219304E+06
    3.38   900.000   -2.928E+02    5.6234504E+06   -5.5865312E+04   -4.5327203E+04    5.6234504E+06    4.5327233E+04    5.6339885E+06
    3.39   900.000   -2.933E+02    5.5337302E+06   -5.5774990E+04   -4.5393029E+04    5.5337303E+06    4.5393058E+04    5.5441122E+06
    3.40   900.000   -2.938E+02    5.4438740E+06   -5.5649990E+04   -4.5418991E+04    5.4438740E+06    4.5419017E+04    5.4541050E+06
    3.41   900.000   -2.943E+02    5.3555728E+06   -5.5492440E+04   -4.5404355E+04    5.3555728E+06    4.5404380E+04    5.3656609E+06
    3.42   900.000   -2.948E+02    5.2703541E+06   -5.5298588E+04   -4.5343700E+04    5.2703541E+06    4.5343723E+04    5.2803090E+06
    3.43   900.000   -2.953E+02    5.1895411E+06   -5.5058648E+04   -4.5226831E+04    5.1895412E+06    4.5226852E+04    5.1993730E+06
    3.44   900.000   -2.958E+02    5.1142266E+06   -5.4757230E+04   -4.5039185E+04    5.1142267E+06    4.5039205E+04    5.1239447E+06
    3.45   900.000   -2.963E+02    5.0452622E+06   -5.4374313E+04   -4.4762716E+04    5.0452622E+06    4.4762733E+04    5.0548738E+06
    3.46   900.000   -2.968E+02    4.9832606E+06   -5.3886730E+04   -4.4377200E+04    4.9832606E+06    4.4377216E+04    4.9927702E+06
    3.47   900.000   -2.974E+02    4.9286104E+06   -5.3270041E+04   -4.3861882E+04    4.9286104E+06    4.3861896E+04    4.9380185E+06
    3.48   900.000   -2.979E+02    4.8814979E+06   -5.2500647E+04   -4.3197289E+04    4.8814979E+06    4.3197302E+04    4.8908013E+06
    3.49   900.000   -2.984E+02    4.8419360E+06   -5.1557959E+04   -4.2367075E+04    4.8419360E+06    4.2367086E+04    4.8511269E+06
    3.50   900.000   -2.989E+02    4.8097947E+06   -5.0426414E+04   -4.1359690E+04    4.8097947E+06    4.1359699E+04    4.8188615E+06
    3.51   900.000   -2.994E+02    4.7848326E+06   -4.9097145E+04   -4.0169724E+04    4.7848326E+06    4.0169732E+04    4.7937600E+06
    3.52   900.000   -3.000E+02    4.7667254E+06   -4.7569120E+04   -3.8798757E+04    4.7667254E+06    3.8798764E+04    4.7754957E+06
    3.53   900.000   -3.005E+02    4.7550917E+06   -4.5849638E+04   -3.7255628E+04    4.7550917E+06    3.7255635E+04    4.7636857E+06
    3.54   900.000   -3.010E+02    4.7495144E+06   -4.3954109E+04   -3.5556081E+04    4.7495144E+06    3.5556087E+04    4.7579124E+06
    3.55   900.000   -3.016E+02    4.7495565E+06   -4.1905159E+04   -3.3721824E+04    4.7495565E+06    3.3721830E+04    4.7577398E+06
    3.56   900.000   -3.021E+02    4.7547732E+06   -3.9731151E+04   -3.1779107E+04    4.7547732E+06    3.1779113E+04    4.7627253E+06
    3.57   900.000   -3.026E+02    4.7647193E+06   -3.7464316E+04   -2.9756984E+04    4.7647193E+06    2.9756991E+04    4.7724266E+06
    3.58   900.000   -3.032E+02    4.7789523E+06   -3.5138698E+04   -2.7685465E+04    4.7789523E+06    2.7685471E+04    4.7864056E+06
    3.59   900.000   -3.037E+02    4.7970334E+06   -3.2788153E+04   -2.5593766E+04    4.7970334E+06    2.5593773E+04    4.8042278E+06
    3.60   900.000   -3.042E+02    4.8185248E+06   -3.0444621E+04   -2.3508850E+04    4.8185248E+06    2.3508858E+04    4.8254606E+06
    3.61   900.000   -3.047E+02    4.8429867E+06   -2.8136828E+04   -2.1454400E+04    4.8429867E+06    2.1454409E+04    4.8496692E+06
    3.62   900.000   -3.053E+02    4.8699730E+06   -2.5889506E+04   -1.9450291E+04    4.8699730E+06    1.9450300E+04    4.8764122E+06
    3.63   900.000   -3.058E+02    4.8990280E+06   -2.3723160E+04   -1.7512575E+04    4.8990280E+06    1.7512586E+04    4.9052386E+06
    3.64   900.000   -3.063E+02    4.9296856E+06   -2.1654320E+04   -1.5653912E+04    4.9296856E+06    1.5653925E+04    4.9356860E+06
    3.65   900.000   -3.068E+02    4.9614711E+06   -1.9696149E+04   -1.3884309E+04    4.9614711E+06    1.3884322E+04    4.9672829E+06
    3.66   900.000   -3.073E+02    4.9939074E+06   -1.7859279E+04   -1.2212031E+04    4.9939074E+06    1.2212046E+04    4.9995546E+06
    3.67   900.000   -3.078E+02    5.0265256E+06   -1.6152687E+04   -1.0644524E+04    5.0265256E+06    1.0644539E+04    5.0320337E+06
    3.68   900.000   -3.083E+02    5.0588790E+06   -1.4584482E+04   -9.1891776E+03    5.0588790E+06    9.1891944E+03    5.0642743E+06
    3.69   900.000   -3.088E+02    5.0905597E+06   -1.3162479E+04   -7.8538561E+03    5.0905598E+06    7.8538740E+03    5.0958684E+06
    3.70   900.000   -3.093E+02    5.1212157E+06   -1.1894512E+04   -6.6471098E+03    5.1212157E+06    6.6471288E+03    5.1264631E+06
    3.71   900.000   -3.098E+02    5.1505646E+06   -1.0788470E+04   -5.5780844E+03    5.1505646E+06    5.5781043E+03    5.1557750E+06
    3.72   900.000   -3.103E+02    5.1784048E+06   -9.8521063E+03   -4.6561684E+03    5.1784048E+06    4.6561891E+03    5.1836008E+06
    3.73   900.000   -3.107E+02    5.2046181E+06   -9.0926931E+03   -3.8904680E+03    5.2046181E+06    3.8904895E+03    5.2098203E+06
    3.74   900.000   -3.112E+02    5.2291661E+06   -8.5166247E+03   -3.2892134E+03    5.2291661E+06    3.2892357E+03    5.2343935E+06
    3.75   900.000   -3.117E+02    5.2520792E+06   -8.1290563E+03   -2.8592012E+03    5.2520792E+06    2.8592241E+03    5.2573491E+06
    3.76   900.000   -3.121E+02    5.2734398E+06   -7.9336528E+03   -2.6053588E+03    5.2734398E+06    2.6053822E+03    5.2787681E+06
    3.77   900.000   -3.126E+02    5.2933617E+06   -7.9324913E+03   -2.5304895E+03    5.2933617E+06    2.5305134E+03    5.2987637E+06
    3.78   900.000   -3.130E+02    5.3119697E+06   -8.1261308E+03   -2.6352227E+03    5.3119697E+06    2.6352470E+03    5.3174606E+06
    3.79   900.000   -3.134E+02    5.3293811E+06   -8.5138327E+03   -2.9181655E+03    5.3293812E+06    2.9181903E+03    5.3349768E+06
    3.80   900.000   -3.138E+02    5.3456928E+06   -9.0939025E+03   -3.3762309E+03    5.3456928E+06    3.3762560E+03    5.3514105E+06
    3.81   900.000   -3.142E+02    5.3609742E+06   -9.8641111E+03   -4.0051012E+03    5.3609743E+06    4.0051265E+03    5.3668333E+06
    3.82   900.000   -3.146E+02    5.3752681E+06   -1.0822154E+04   -4.7997827E+03    5.3752682E+06    4.7998083E+03    5.3812906E+06
    3.83   900.000   -3.150E+02    5.3885971E+06   -1.1966110E+04   -5.7552002E+03    5.3885972E+06    5.7552259E+03    5.3948081E+06
    3.84   900.000   -3.154E+02    5.4009750E+06   -1.3294854E+04   -6.8667791E+03    5.4009751E+06    6.8668049E+03    5.4074032E+06
    3.85   900.000   -3.158E+02    5.4124200E+06   -1.4808396E+04   -8.1309606E+03    5.4124201E+06    8.1309865E+03    5.4190975E+06
    3.86   900.000   -3.162E+02    5.4229674E+06   -1.6508081E+04   -9.5455913E+03    5.4229674E+06    9.5456171E+03    5.4299299E+06
    3.87   900.000   -3.165E+02    5.4326784E+06   -1.8396633E+04   -1.1110133E+04    5.4326785E+06    1.1110158E+04    5.4399650E+06
    3.88   900.000   -3.169E+02    5.4416442E+06   -2.0477988E+04   -1.2825648E+04    5.4416442E+06    1.2825673E+04    5.4492966E+06
    3.89   900.000   -3.173E+02    5.4499823E+06   -2.2756904E+04   -1.4694538E+04    5.4499824E+06    1.4694564E+04    5.4580447E+06
    3.90   900.000   -3.176E+02    5.4578267E+06   -2.5238358E+04   -1.6720038E+04    5.4578268E+06    1.6720064E+04    5.4663451E+06
    3.91   900.000   -3.180E+02    5.4653107E+06   -2.7926739E+04   -1.8905491E+04    5.4653108E+06    1.8905516E+04    5.4743320E+06
    3.92   900.000   -3.183E+02    5.4725452E+06   -3.0824918E+04   -2.1253473E+04    5.4725452E+06    2.1253498E+04    5.4821167E+06
    3.93   900.000   -3.186E+02    5.4795934E+06   -3.3933230E+04   -2.3764827E+04    5.4795934E+06    2.3764851E+04    5.4897618E+06
    3.94   900.000   -3.190E+02    5.4864450E+06   -3.7248462E+04   -2.6437690E+04    5.4864451E+06    2.6437714E+04    5.4972558E+06
    3.95   900.000   -3.193E+02    5.4929920E+06   -4.0762883E+04   -2.9266572E+04    5.4929920E+06    2.9266595E+04    5.5044883E+06
    3.96   900.000   -3.196E+02    5.4990081E+06   -4.4463405E+04   -3.2241544E+04    5.4990082E+06    3.2241567E+04    5.5112300E+06
    3.97   900.000   -3.199E+02    5.5041352E+06   -4.8330883E+04   -3.5347575E+04    5.5041352E+06    3.5347598E+04    5.5171185E+06
    3.98   900.000   -3.202E+02    5.5078773E+06   -5.2339628E+04   -3.8564061E+04    5.5078773E+06    3.8564083E+04    5.5216528E+06
    3.99   900.000   -3.205E+02    5.5096040E+06   -5.6457174E+04   -4.1864567E+04    5.5096040E+06    4.1864589E+04    5.5241966E+06
    4.00   900.000   -3.208E+02    5.5085650E+06   -6.0644354E+04   -4.5216852E+04    5.5085650E+06    4.5216873E+04    5.5239925E+06
    4.01   900.000   -3.211E+02    5.5039139E+06   -6.4855755E+04   -4.8583205E+04    5.5039139E+06    4.8583226E+04    5.5201864E+06
    4.02   900.000   -3.214E+02    5.4947426E+06   -6.9040599E+04   -5.1921149E+04    5.4947426E+06    5.1921169E+04    5.5118620E+06
    4.03   900.000   -3.217E+02    5.4801243E+06   -7.3144066E+04   -5.5184526E+04    5.4801243E+06    5.5184544E+04    5.4980838E+06
    4.04   900.000   -3.220E+02    5.4591626E+06   -7.7109033E+04   -5.8324950E+04    5.4591625E+06    5.8324967E+04    5.4779466E+06
    4.05   900.000   -3.223E+02    5.4310444E+06   -8.0878134E+04   -6.1293554E+04    5.4310444E+06    6.1293571E+04    5.4506289E+06
    4.06   900.000   -3.225E+02    5.3950935E+06   -8.4396009E+04   -6.4042920E+04    5.3950935E+06    6.4042936E+04    5.4154466E+06
    4.07   900.000   -3.228E+02    5.3508205E+06   -8.7611533E+04   -6.6529028E+04    5.3508204E+06    6.6529042E+04    5.3719029E+06
    4.08   900.000   -3.231E+02    5.2979651E+06   -9.0479864E+04   -6.8713063E+04    5.2979650E+06    6.8713076E+04    5.3197318E+06
    4.09   900.000   -3.234E+02    5.2365287E+06   -9.2964103E+04   -7.0562932E+04    5.2365287E+06    7.0562944E+04    5.2589299E+06
    4.10   900.000   -3.236E+02    5.1667930E+06   -9.5036477E+04   -7.2054377E+04    5.1667929E+06    7.2054387E+04    5.1897750E+06
    4.11   900.000   -3.239E+02    5.0893223E+06   -9.6678975E+04   -7.3171626E+04    5.0893222E+06    7.3171635E+04    5.1128296E+06
    4.12   900.000   -3.242E+02    5.0049515E+06   -9.7883455E+04   -7.3907595E+04    5.0049514E+06    7.3907603E+04    5.0289273E+06
    4.13   900.000   -3.244E+02    4.9147575E+06   -9.8651298E+04   -7.4263684E+04    4.9147574E+06    7.4263690E+04    4.9391451E+06
    4.14   900.000   -3.247E+02    4.8200182E+06   -9.8992693E+04   -7.4249242E+04    4.8200181E+06    7.4249247E+04    4.8447616E+06
    4.15   900.000   -3.250E+02    4.7221611E+06   -9.8925668E+04   -7.3880793E+04    4.7221610E+06    7.3880796E+04    4.7472059E+06
    4.16   900.000   -3.252E+02    4.6227062E+06   -9.8474963E+04   -7.3181101E+04    4.6227061E+06    7.3181104E+04    4.6480000E+06
    4.17   900.000   -3.255E+02    4.5232070E+06   -9.7670829E+04   -7.2178146E+04    4.5232070E+06    7.2178147E+04    4.5486997E+06
    4.18   900.000   -3.258E+02    4.4251936E+06   -9.6547820E+04   -7.0904057E+04    4.4251936E+06    7.0904057E+04    4.4508373E+06
    4.19   900.000   -3.260E+02    4.3301216E+06   -9.5143636E+04   -6.9394062E+04    4.3301215E+06    6.9394060E+04    4.3558711E+06
    4.20   900.000   -3.263E+02    4.2393293E+06   -9.3498076E+04   -6.7685479E+04    4.2393293E+06    6.7685477E+04    4.2651418E+06
    4.21   900.000   -3.266E+02    4.1540058E+06   -9.1652130E+04   -6.5816801E+04    4.1540057E+06    6.5816797E+04    4.1798410E+06
    4.22   900.000   -3.268E+02    4.0751691E+06   -8.9647268E+04   -6.3826878E+04    4.0751691E+06    6.3826873E+04    4.1009894E+06
    4.23   900.000   -3.271E+02    4.0036562E+06   -8.7524905E+04   -6.1754233E+04    4.0036562E+06    6.1754227E+04    4.0294269E+06
    4.24   900.000   -3.274E+02    3.9401224E+06   -8.5326063E+04   -5.9636510E+04    3.9401223E+06    5.9636502E+04    3.9658119E+06
    4.25   900.000   -3.277E+02    3.8850492E+06   -8.3091176E+04   -5.7510030E+04    3.8850492E+06    5.7510021E+04    3.9106303E+06
    4.26   900.000   -3.279E+02    3.8387593E+06   -8.0859989E+04   -5.5409462E+04    3.8387592E+06    5.5409452E+04    3.8642097E+06
    4.27   900.000   -3.282E+02    3.8014347E+06   -7.8671492E+04   -5.3367552E+04    3.8014346E+06    5.3367540E+04    3.8267386E+06
    4.28   900.000   -3.285E+02    3.7731382E+06   -7.6563828E+04   -5.1414910E+04    3.7731381E+06    5.1414897E+04    3.7982870E+06
    4.29   900.000   -3.288E+02    3.7538340E+06   -7.4574131E+04   -4.9579826E+04    3.7538339E+06    4.9579812E+04    3.7788282E+06
    4.30   900.000   -3.291E+02    3.7434073E+06   -7.2738268E+04   -4.7888104E+04    3.7434072E+06    4.7888089E+04    3.7682574E+06
    4.31   900.000   -3.294E+02    3.7416812E+06   -7.1090478E+04   -4.6362898E+04    3.7416812E+06    4.6362882E+04    3.7664087E+06
    4.32   900.000   -3.296E+02    3.7484305E+06   -6.9662926E+04   -4.5024570E+04    3.7484304E+06    4.5024553E+04    3.7730688E+06
    4.33   900.000   -3.299E+02    3.7633926E+06   -6.8485198E+04   -4.3890544E+04    3.7633926E+06    4.3890526E+04    3.7879872E+06
    4.34   900.000   -3.302E+02    3.7862766E+06   -6.7583757E+04   -4.2975181E+04    3.7862765E+06    4.2975162E+04    3.8108851E+06
    4.35   900.000   -3.305E+02    3.8167705E+06   -6.6981416E+04   -4.2289668E+04    3.8167705E+06    4.2289648E+04    3.8414622E+06
    4.36   900.000   -3.308E+02    3.8545497E+06   -6.6696837E+04   -4.1841933E+04    3.8545496E+06    4.1841913E+04    3.8794045E+06
    4.37   900.000   -3.311E+02    3.8992853E+06   -6.6744097E+04   -4.1636609E+04    3.8992852E+06    4.1636588E+04    3.9243927E+06
    4.38   900.000   -3.314E+02    3.9506562E+06   -6.7132334E+04   -4.1675035E+04    3.9506561E+06    4.1675014E+04    3.9761134E+06
    4.39   900.000   -3.317E+02    4.0083624E+06   -6.7865482E+04   -4.1955345E+04    4.0083624E+06    4.1955323E+04    4.0342725E+06
    4.40   900.000   -3.320E+02    4.0721415E+06   -6.8942089E+04   -4.2472601E+04    4.0721415E+06    4.2472579E+04    4.0986109E+06
    4.41   900.000   -3.323E+02    4.1417858E+06   -7.0355231E+04   -4.3219019E+04    4.1417858E+06    4.3218996E+04    4.1689220E+06
    4.42   900.000   -3.327E+02    4.2171599E+06   -7.2092491E+04   -4.4184226E+04    4.2171599E+06    4.4184204E+04    4.2450681E+06
    4.43   900.000   -3.330E+02    4.2982161E+06   -7.4136018E+04   -4.5355572E+04    4.2982160E+06    4.5355549E+04    4.3269964E+06
    4.44   900.000   -3.333E+02    4.3850052E+06   -7.6462650E+04   -4.6718434E+04    4.3850051E+06    4.6718412E+04    4.4147493E+06
    4.45   900.000   -3.336E+02    4.4776821E+06   -7.9044130E+04   -4.8256523E+04    4.4776820E+06    4.8256501E+04    4.5084697E+06
    4.46   900.000   -3.339E+02    4.5765028E+06   -8.1847432E+04   -4.9952154E+04    4.5765027E+06    4.9952132E+04    4.6083980E+06
    4.47   900.000   -3.342E+02    4.6818125E+06   -8.4835237E+04   -5.1786496E+04    4.6818124E+06    5.1786474E+04    4.7148612E+06
    4.48   900.000   -3.346E+02    4.7940247E+06   -8.7966597E+04   -5.3739806E+04    4.7940246E+06    5.3739784E+04    4.8282514E+06
    4.49   900.000   -3.349E+02    4.9135912E+06   -9.1197825E+04   -5.5791659E+04    4.9135912E+06    5.5791638E+04    4.9489973E+06
    4.50   900.000   -3.352E+02    5.0409645E+06   -9.4483599E+04   -5.7921203E+04    5.0409644E+06    5.7921182E+04    5.0775268E+06
    4.51   900.000   -3.355E+02    5.1765542E+06   -9.7778276E+04   -6.0107439E+04    5.1765541E+06    6.0107418E+04    5.2142249E+06
    4.52   900.000   -3.359E+02    5.3206801E+06   -1.0103732E+05   -6.2329533E+04    5.3206801E+06    6.2329513E+04    5.3593879E+06
    4.53   900.000   -3.362E+02    5.4735259E+06   -1.0421877E+05   -6.4567140E+04    5.4735258E+06    6.4567120E+04    5.5131774E+06
    4.54   900.000   -3.365E+02    5.6350938E+06   -1.0728463E+05   -6.6800711E+04    5.6350937E+06    6.6800692E+04    5.6755776E+06
    4.55   900.000   -3.369E+02    5.8051665E+06   -1.1020198E+05   -6.9011771E+04    5.8051665E+06    6.9011752E+04    5.8463567E+06
    4.56   900.000   -3.372E+02    5.9832774E+06   -1.1294387E+05   -7.1183129E+04    5.9832773E+06    7.1183110E+04    6.0250380E+06
    4.57   900.000   -3.375E+02    6.1686910E+06   -1.1548982E+05   -7.3299030E+04    6.1686910E+06    7.3299012E+04    6.2108817E+06
    4.58   900.000   -3.379E+02    6.3603980E+06   -1.1782585E+05   -7.5345256E+04    6.3603980E+06    7.5345238E+04    6.4028786E+06
    4.59   900.000   -3.382E+02    6.5571231E+06   -1.1994434E+05   -7.7309181E+04    6.5571231E+06    7.7309163E+04    6.5997582E+06
    4.60   900.000   -3.386E+02    6.7573485E+06   -1.2184343E+05   -7.9179805E+04    6.7573484E+06    7.9179788E+04    6.8000120E+06
    4.61   900.000   -3.390E+02    6.9593511E+06   -1.2352631E+05   -8.0947770E+04    6.9593510E+06    8.0947753E+04    7.0019295E+06
    4.62   900.000   -3.393E+02    7.1612529E+06   -1.2500029E+05   -8.2605328E+04    7.1612529E+06    8.2605312E+04    7.2036478E+06
    4.63   900.000   -3.397E+02    7.3610818E+06   -1.2627572E+05   -8.4146232E+04    7.3610817E+06    8.4146216E+04    7.4032112E+06
    4.64   900.000   -3.400E+02    7.5568387E+06   -1.2736480E+05   -8.5565488E+04    7.5568387E+06    8.5565473E+04    7.5986380E+06
    4.65   900.000   -3.404E+02    7.7465690E+06   -1.2828021E+05   -8.6858931E+04    7.7465690E+06    8.6858915E+04    7.7879903E+06
    4.66   900.000   -3.408E+02    7.9284319E+06   -1.2903370E+05   -8.8022582E+04    7.9284318E+06    8.8022567E+04    7.9694429E+06
    4.67   900.000   -3.412E+02    8.1007637E+06   -1.2963446E+05   -8.9051833E+04    8.1007636E+06    8.9051818E+04    8.1413462E+06
    4.68   900.000   -3.415E+02    8.2621321E+06   -1.3008768E+05   -8.9940508E+04    8.2621320E+06    8.9940495E+04    8.3022792E+06
    4.69   900.000   -3.419E+02    8.4113763E+06   -1.3039309E+05   -9.0679956E+04    8.4113762E+06    9.0679942E+04    8.4510893E+06
    4.70   900.000   -3.423E+02    8.5476322E+06   -1.3054392E+05   -9.1258321E+04    8.5476321E+06    9.1258309E+04    8.5869177E+06
    4.71   900.000   -3.427E+02    8.6703419E+06   -1.3052637E+05   -9.1660199E+04    8.6703419E+06    9.1660187E+04    8.7092081E+06
    4.72   900.000   -3.430E+02    8.7792486E+06   -1.3031971E+05   -9.1866794E+04    8.7792486E+06    9.1866783E+04    8.8177015E+06
    4.73   900.000   -3.434E+02    8.8743792E+06   -1.2989724E+05   -9.1856697E+04    8.8743791E+06    9.1856687E+04    8.9124197E+06
    4.74   900.000   -3.438E+02    8.9560181E+06   -1.2922789E+05   -9.1607239E+04    8.9560181E+06    9.1607229E+04    8.9936387E+06
    4.75   900.000   -3.442E+02    9.0246769E+06   -1.2827865E+05   -9.1096336E+04    9.0246768E+06    9.1096327E+04    9.0618591E+06
    4.76   900.000   -3.446E+02    9.0810607E+06   -1.2701737E+05   -9.0304609E+04    9.0810607E+06    9.0304601E+04    9.1177734E+06
    4.77   900.000   -3.450E+02    9.1260370E+06   -1.2541576E+05   -8.9217515E+04    9.1260370E+06    8.9217509E+04    9.1622352E+06
    4.78   900.000   -3.453E+02    9.1606053E+06   -1.2345227E+05   -8.7827221E+04    9.1606053E+06    8.7827216E+04    9.1962303E+06
    4.79   900.000   -3.457E+02    9.1858689E+06   -1.2111454E+05   -8.6133970E+04    9.1858689E+06    8.6133966E+04    9.2208495E+06
    4.80   900.000   -3.461E+02    9.2030084E+06   -1.1840107E+05   -8.4146767E+04    9.2030083E+06    8.4146766E+04    9.2372626E+06
    4.81   900.000   -3.465E+02    9.2132534E+06   -1.1532217E+05   -8.1883320E+04    9.2132534E+06    8.1883320E+04    9.2466922E+06
    4.82   900.000   -3.469E+02    9.2178536E+06   -1.1189977E+05   -7.9369237E+04    9.2178536E+06    7.9369239E+04    9.2503841E+06
    4.83   900.000   -3.473E+02    9.2180453E+06   -1.0816652E+05   -7.6636640E+04    9.2180452E+06    7.6636644E+04    9.2495751E+06
    4.84   900.000   -3.476E+02    9.2150152E+06   -1.0416405E+05   -7.3722340E+04    9.2150151E+06    7.3722347E+04    9.2454568E+06
    4.85   900.000   -3.480E+02    9.2098608E+06   -9.9940673E+04   -7.0665833E+04    9.2098608E+06    7.0665841E+04    9.2391356E+06
    4.86   900.000   -3.484E+02    9.2035495E+06   -9.5548858E+04   -6.7507293E+04    9.2035495E+06    6.7507303E+04    9.2315911E+06
    4.87   900.000   -3.488E+02    9.1968783E+06   -9.1042623E+04   -6.4285785E+04    9.1968783E+06    6.4285797E+04    9.2236351E+06
    4.88   900.000   -3.492E+02    9.1904363E+06   -8.6475090E+04   -6.1037796E+04    9.1904363E+06    6.1037810E+04    9.2158736E+06
    4.89   900.000   -3.495E+02    9.1845741E+06   -8.1896392E+04   -5.7796166E+04    9.1845741E+06    5.7796183E+04    9.2086743E+06
    4.90   900.000   -3.499E+02    9.1793812E+06   -7.7352017E+04   -5.4589432E+04    9.1793812E+06    5.4589450E+04    9.2021438E+06
    4.91   900.000   -3.503E+02    9.1746742E+06   -7.2881653E+04   -5.1441545E+04    9.1746742E+06    5.1441565E+04    9.1961143E+06
    4.92   900.000   -3.507E+02    9.1699974E+06   -6.8518523E+04   -4.8371913E+04    9.1699973E+06    4.8371935E+04    9.1901439E+06
    4.93   900.000   -3.511E+02    9.1646353E+06   -6.4289211E+04   -4.5395708E+04    9.1646353E+06    4.5395731E+04    9.1835288E+06
    4.94   900.000   -3.514E+02    9.1576382E+06   -6.0213909E+04   -4.2524373E+04    9.1576382E+06    4.2524397E+04    9.1753277E+06
    4.95   900.000   -3.518E+02    9.1478571E+06   -5.6307051E+04   -3.9766295E+04    9.1478571E+06    3.9766321E+04    9.1643979E+06
    4.96   900.000   -3.522E+02    9.1339872E+06   -5.2578255E+04   -3.7127607E+04    9.1339872E+06    3.7127634E+04    9.1494378E+06
    4.97   900.000   -3.526E+02    9.1146160E+06   -4.9033501E+04   -3.4613060E+04    9.1146160E+06    3.4613087E+04    9.1290364E+06
    4.98   900.000   -3.530E+02    9.0882732E+06   -4.5676431E+04   -3.2226923E+04    9.0882732E+06    3.2226951E+04    9.1017227E+06
    4.99   900.000   -3.534E+02    9.0534792E+06   -4.2509654E+04   -2.9973834E+04    9.0534793E+06    2.9973863E+04    9.0660151E+06
    5.00   900.000   -3.538E+02    9.0087887E+06   -3.9535916E+04   -2.7859497E+04    9.0087887E+06    2.7859528E+04    9.0204651E+06
